#===============================================================================
# Created using the Atomic Simulation Environment (ASE)

# Mon Nov 24 17:08:41 2025

#=======================================================
lattice_vector 20.3999999999999986 0.0000000000000000 0.0000000000000000 
lattice_vector 0.0000000000000000 14.4249783362055712 0.0000000000000000 
lattice_vector 0.0000000000000000 0.0000000000000000 34.3274935008616708 
atom 2.0400000000000000 1.4424978336205572 15.0000000000000000 Au
atom 6.1200000000000001 1.4424978336205572 15.0000000000000000 Au
atom 10.1999999999999993 1.4424978336205572 15.0000000000000000 Au
atom 14.2800000000000011 1.4424978336205572 15.0000000000000000 Au
atom 18.3599999999999994 1.4424978336205572 15.0000000000000000 Au
atom 2.0400000000000000 4.3274935008616717 15.0000000000000000 Au
atom 6.1200000000000001 4.3274935008616717 15.0000000000000000 Au
atom 10.1999999999999993 4.3274935008616717 15.0000000000000000 Au
atom 14.2800000000000011 4.3274935008616717 15.0000000000000000 Au
atom 18.3599999999999994 4.3274935008616717 15.0000000000000000 Au
atom 2.0400000000000000 7.2124891681027856 15.0000000000000000 Au
atom 6.1200000000000001 7.2124891681027856 15.0000000000000000 Au
atom 10.1999999999999993 7.2124891681027856 15.0000000000000000 Au
atom 14.2800000000000011 7.2124891681027856 15.0000000000000000 Au
atom 18.3599999999999994 7.2124891681027856 15.0000000000000000 Au
atom 2.0400000000000000 10.0974848353439004 15.0000000000000000 Au
atom 6.1200000000000001 10.0974848353439004 15.0000000000000000 Au
atom 10.1999999999999993 10.0974848353439004 15.0000000000000000 Au
atom 14.2800000000000011 10.0974848353439004 15.0000000000000000 Au
atom 18.3599999999999994 10.0974848353439004 15.0000000000000000 Au
atom 2.0400000000000000 12.9824805025850143 15.0000000000000000 Au
atom 6.1200000000000001 12.9824805025850143 15.0000000000000000 Au
atom 10.1999999999999993 12.9824805025850143 15.0000000000000000 Au
atom 14.2800000000000011 12.9824805025850143 15.0000000000000000 Au
atom 18.3599999999999994 12.9824805025850143 15.0000000000000000 Au
atom 0.0000000000000000 0.0000000000000000 16.4424978336205569 Au
atom 4.0800000000000001 0.0000000000000000 16.4424978336205569 Au
atom 8.1600000000000001 0.0000000000000000 16.4424978336205569 Au
atom 12.2400000000000002 0.0000000000000000 16.4424978336205569 Au
atom 16.3200000000000003 0.0000000000000000 16.4424978336205569 Au
atom 0.0000000000000000 2.8849956672411143 16.4424978336205569 Au
atom 4.0800000000000001 2.8849956672411143 16.4424978336205569 Au
atom 8.1600000000000001 2.8849956672411143 16.4424978336205569 Au
atom 12.2400000000000002 2.8849956672411143 16.4424978336205569 Au
atom 16.3200000000000003 2.8849956672411143 16.4424978336205569 Au
atom 0.0000000000000000 5.7699913344822287 16.4424978336205569 Au
atom 4.0800000000000001 5.7699913344822287 16.4424978336205569 Au
atom 8.1600000000000001 5.7699913344822287 16.4424978336205569 Au
atom 12.2400000000000002 5.7699913344822287 16.4424978336205569 Au
atom 16.3200000000000003 5.7699913344822287 16.4424978336205569 Au
atom 0.0000000000000000 8.6549870017233435 16.4424978336205569 Au
atom 4.0800000000000001 8.6549870017233435 16.4424978336205569 Au
atom 8.1600000000000001 8.6549870017233435 16.4424978336205569 Au
atom 12.2400000000000002 8.6549870017233435 16.4424978336205569 Au
atom 16.3200000000000003 8.6549870017233435 16.4424978336205569 Au
atom 0.0000000000000000 11.5399826689644573 16.4424978336205569 Au
atom 4.0800000000000001 11.5399826689644573 16.4424978336205569 Au
atom 8.1600000000000001 11.5399826689644573 16.4424978336205569 Au
atom 12.2400000000000002 11.5399826689644573 16.4424978336205569 Au
atom 16.3200000000000003 11.5399826689644573 16.4424978336205569 Au
atom 2.0400000000000000 1.4424978336205572 17.8849956672411139 Au
atom 6.1200000000000001 1.4424978336205572 17.8849956672411139 Au
atom 10.1999999999999993 1.4424978336205572 17.8849956672411139 Au
atom 14.2800000000000011 1.4424978336205572 17.8849956672411139 Au
atom 18.3599999999999994 1.4424978336205572 17.8849956672411139 Au
atom 2.0400000000000000 4.3274935008616717 17.8849956672411139 Au
atom 6.1200000000000001 4.3274935008616717 17.8849956672411139 Au
atom 10.1999999999999993 4.3274935008616717 17.8849956672411139 Au
atom 14.2800000000000011 4.3274935008616717 17.8849956672411139 Au
atom 18.3599999999999994 4.3274935008616717 17.8849956672411139 Au
atom 2.0400000000000000 7.2124891681027856 17.8849956672411139 Au
atom 6.1200000000000001 7.2124891681027856 17.8849956672411139 Au
atom 10.1999999999999993 7.2124891681027856 17.8849956672411139 Au
atom 14.2800000000000011 7.2124891681027856 17.8849956672411139 Au
atom 18.3599999999999994 7.2124891681027856 17.8849956672411139 Au
atom 2.0400000000000000 10.0974848353439004 17.8849956672411139 Au
atom 6.1200000000000001 10.0974848353439004 17.8849956672411139 Au
atom 10.1999999999999993 10.0974848353439004 17.8849956672411139 Au
atom 14.2800000000000011 10.0974848353439004 17.8849956672411139 Au
atom 18.3599999999999994 10.0974848353439004 17.8849956672411139 Au
atom 2.0400000000000000 12.9824805025850143 17.8849956672411139 Au
atom 6.1200000000000001 12.9824805025850143 17.8849956672411139 Au
atom 10.1999999999999993 12.9824805025850143 17.8849956672411139 Au
atom 14.2800000000000011 12.9824805025850143 17.8849956672411139 Au
atom 18.3599999999999994 12.9824805025850143 17.8849956672411139 Au
atom 0.0000000000000000 0.0000000000000000 19.3274935008616708 Au
atom 4.0800000000000001 0.0000000000000000 19.3274935008616708 Au
atom 8.1600000000000001 0.0000000000000000 19.3274935008616708 Au
atom 12.2400000000000002 0.0000000000000000 19.3274935008616708 Au
atom 16.3200000000000003 0.0000000000000000 19.3274935008616708 Au
atom 0.0000000000000000 2.8849956672411143 19.3274935008616708 Au
atom 4.0800000000000001 2.8849956672411143 19.3274935008616708 Au
atom 8.1600000000000001 2.8849956672411143 19.3274935008616708 Au
atom 12.2400000000000002 2.8849956672411143 19.3274935008616708 Au
atom 16.3200000000000003 2.8849956672411143 19.3274935008616708 Au
atom 0.0000000000000000 5.7699913344822287 19.3274935008616708 Au
atom 4.0800000000000001 5.7699913344822287 19.3274935008616708 Au
atom 8.1600000000000001 5.7699913344822287 19.3274935008616708 Au
atom 12.2400000000000002 5.7699913344822287 19.3274935008616708 Au
atom 16.3200000000000003 5.7699913344822287 19.3274935008616708 Au
atom 0.0000000000000000 8.6549870017233435 19.3274935008616708 Au
atom 4.0800000000000001 8.6549870017233435 19.3274935008616708 Au
atom 8.1600000000000001 8.6549870017233435 19.3274935008616708 Au
atom 12.2400000000000002 8.6549870017233435 19.3274935008616708 Au
atom 16.3200000000000003 8.6549870017233435 19.3274935008616708 Au
atom 0.0000000000000000 11.5399826689644573 19.3274935008616708 Au
atom 4.0800000000000001 11.5399826689644573 19.3274935008616708 Au
atom 8.1600000000000001 11.5399826689644573 19.3274935008616708 Au
atom 12.2400000000000002 11.5399826689644573 19.3274935008616708 Au
atom 16.3200000000000003 11.5399826689644573 19.3274935008616708 Au
