#===============================================================================
# Created using the Atomic Simulation Environment (ASE)

# Mon Nov 24 17:08:41 2025

#=======================================================
lattice_vector 14.4249783362055712 0.0000000000000000 0.0000000000000000 
lattice_vector 7.2124891681027856 12.4923976881942078 0.0000000000000000 
lattice_vector 0.0000000000000000 0.0000000000000000 37.0667672948810178 
atom 0.0000000000000000 0.0000000000000000 15.0000000000000000 Au
atom 2.8849956672411143 0.0000000000000000 15.0000000000000000 Au
atom 5.7699913344822287 0.0000000000000000 15.0000000000000000 Au
atom 8.6549870017233435 0.0000000000000000 15.0000000000000000 Au
atom 11.5399826689644573 0.0000000000000000 15.0000000000000000 Au
atom 1.4424978336205572 2.4984795376388416 15.0000000000000000 Au
atom 4.3274935008616717 2.4984795376388416 15.0000000000000000 Au
atom 7.2124891681027856 2.4984795376388416 15.0000000000000000 Au
atom 10.0974848353439004 2.4984795376388416 15.0000000000000000 Au
atom 12.9824805025850143 2.4984795376388416 15.0000000000000000 Au
atom 2.8849956672411143 4.9969590752776831 15.0000000000000000 Au
atom 5.7699913344822287 4.9969590752776831 15.0000000000000000 Au
atom 8.6549870017233435 4.9969590752776831 15.0000000000000000 Au
atom 11.5399826689644573 4.9969590752776831 15.0000000000000000 Au
atom 14.4249783362055712 4.9969590752776831 15.0000000000000000 Au
atom 4.3274935008616717 7.4954386129165247 15.0000000000000000 Au
atom 7.2124891681027856 7.4954386129165247 15.0000000000000000 Au
atom 10.0974848353439004 7.4954386129165247 15.0000000000000000 Au
atom 12.9824805025850143 7.4954386129165247 15.0000000000000000 Au
atom 15.8674761698261282 7.4954386129165247 15.0000000000000000 Au
atom 5.7699913344822287 9.9939181505553663 15.0000000000000000 Au
atom 8.6549870017233435 9.9939181505553663 15.0000000000000000 Au
atom 11.5399826689644573 9.9939181505553663 15.0000000000000000 Au
atom 14.4249783362055730 9.9939181505553663 15.0000000000000000 Au
atom 17.3099740034466869 9.9939181505553663 15.0000000000000000 Au
atom 1.4424978336205572 0.8328265125462805 17.3555890982936738 Au
atom 4.3274935008616717 0.8328265125462805 17.3555890982936738 Au
atom 7.2124891681027865 0.8328265125462805 17.3555890982936738 Au
atom 10.0974848353439004 0.8328265125462805 17.3555890982936738 Au
atom 12.9824805025850125 0.8328265125462805 17.3555890982936738 Au
atom 2.8849956672411143 3.3313060501851219 17.3555890982936738 Au
atom 5.7699913344822287 3.3313060501851219 17.3555890982936738 Au
atom 8.6549870017233435 3.3313060501851219 17.3555890982936738 Au
atom 11.5399826689644573 3.3313060501851219 17.3555890982936738 Au
atom 14.4249783362055695 3.3313060501851219 17.3555890982936738 Au
atom 4.3274935008616717 5.8297855878239639 17.3555890982936738 Au
atom 7.2124891681027856 5.8297855878239639 17.3555890982936738 Au
atom 10.0974848353439004 5.8297855878239639 17.3555890982936738 Au
atom 12.9824805025850161 5.8297855878239639 17.3555890982936738 Au
atom 15.8674761698261282 5.8297855878239639 17.3555890982936738 Au
atom 5.7699913344822287 8.3282651254628064 17.3555890982936738 Au
atom 8.6549870017233435 8.3282651254628064 17.3555890982936738 Au
atom 11.5399826689644573 8.3282651254628064 17.3555890982936738 Au
atom 14.4249783362055730 8.3282651254628064 17.3555890982936738 Au
atom 17.3099740034466834 8.3282651254628064 17.3555890982936738 Au
atom 7.2124891681027856 10.8267446631016462 17.3555890982936738 Au
atom 10.0974848353439004 10.8267446631016462 17.3555890982936738 Au
atom 12.9824805025850143 10.8267446631016462 17.3555890982936738 Au
atom 15.8674761698261300 10.8267446631016462 17.3555890982936738 Au
atom 18.7524718370672403 10.8267446631016462 17.3555890982936738 Au
atom -0.0000000000000001 1.6656530250925610 19.7111781965873476 Au
atom 2.8849956672411143 1.6656530250925610 19.7111781965873476 Au
atom 5.7699913344822287 1.6656530250925610 19.7111781965873476 Au
atom 8.6549870017233435 1.6656530250925610 19.7111781965873476 Au
atom 11.5399826689644573 1.6656530250925610 19.7111781965873476 Au
atom 1.4424978336205569 4.1641325627314023 19.7111781965873476 Au
atom 4.3274935008616717 4.1641325627314023 19.7111781965873476 Au
atom 7.2124891681027865 4.1641325627314023 19.7111781965873476 Au
atom 10.0974848353439004 4.1641325627314023 19.7111781965873476 Au
atom 12.9824805025850143 4.1641325627314023 19.7111781965873476 Au
atom 2.8849956672411143 6.6626121003702439 19.7111781965873476 Au
atom 5.7699913344822287 6.6626121003702439 19.7111781965873476 Au
atom 8.6549870017233435 6.6626121003702439 19.7111781965873476 Au
atom 11.5399826689644573 6.6626121003702439 19.7111781965873476 Au
atom 14.4249783362055712 6.6626121003702439 19.7111781965873476 Au
atom 4.3274935008616717 9.1610916380090845 19.7111781965873476 Au
atom 7.2124891681027856 9.1610916380090845 19.7111781965873476 Au
atom 10.0974848353439004 9.1610916380090845 19.7111781965873476 Au
atom 12.9824805025850143 9.1610916380090845 19.7111781965873476 Au
atom 15.8674761698261282 9.1610916380090845 19.7111781965873476 Au
atom 5.7699913344822287 11.6595711756479279 19.7111781965873476 Au
atom 8.6549870017233435 11.6595711756479279 19.7111781965873476 Au
atom 11.5399826689644573 11.6595711756479279 19.7111781965873476 Au
atom 14.4249783362055712 11.6595711756479279 19.7111781965873476 Au
atom 17.3099740034466869 11.6595711756479279 19.7111781965873476 Au
atom 0.0000000000000000 0.0000000000000000 22.0667672948810178 Au
atom 2.8849956672411143 0.0000000000000000 22.0667672948810178 Au
atom 5.7699913344822287 0.0000000000000000 22.0667672948810178 Au
atom 8.6549870017233435 0.0000000000000000 22.0667672948810178 Au
atom 11.5399826689644573 0.0000000000000000 22.0667672948810178 Au
atom 1.4424978336205572 2.4984795376388416 22.0667672948810178 Au
atom 4.3274935008616717 2.4984795376388416 22.0667672948810178 Au
atom 7.2124891681027856 2.4984795376388416 22.0667672948810178 Au
atom 10.0974848353439004 2.4984795376388416 22.0667672948810178 Au
atom 12.9824805025850143 2.4984795376388416 22.0667672948810178 Au
atom 2.8849956672411143 4.9969590752776831 22.0667672948810178 Au
atom 5.7699913344822287 4.9969590752776831 22.0667672948810178 Au
atom 8.6549870017233435 4.9969590752776831 22.0667672948810178 Au
atom 11.5399826689644573 4.9969590752776831 22.0667672948810178 Au
atom 14.4249783362055712 4.9969590752776831 22.0667672948810178 Au
atom 4.3274935008616717 7.4954386129165247 22.0667672948810178 Au
atom 7.2124891681027856 7.4954386129165247 22.0667672948810178 Au
atom 10.0974848353439004 7.4954386129165247 22.0667672948810178 Au
atom 12.9824805025850143 7.4954386129165247 22.0667672948810178 Au
atom 15.8674761698261282 7.4954386129165247 22.0667672948810178 Au
atom 5.7699913344822287 9.9939181505553663 22.0667672948810178 Au
atom 8.6549870017233435 9.9939181505553663 22.0667672948810178 Au
atom 11.5399826689644573 9.9939181505553663 22.0667672948810178 Au
atom 14.4249783362055730 9.9939181505553663 22.0667672948810178 Au
atom 17.3099740034466869 9.9939181505553663 22.0667672948810178 Au
