#===============================================================================
# Created using the Atomic Simulation Environment (ASE)

# Fri Aug 15 19:53:18 2025

#=======================================================
lattice_vector  4.078000  0.000000  0.000000
lattice_vector  0.000000  4.078000  0.000000
lattice_vector  0.000000  0.000000  4.078000
atom_frac   0.000000   0.000000   0.000000   Au
atom_frac   0.000000   0.500000   0.500000   Au
atom_frac   0.500000   0.000000   0.500000   Au
atom_frac   0.500000   0.500000   0.000000   Au
