#===============================================================================
# Created using the Atomic Simulation Environment (ASE)

# Mon Nov 24 16:33:12 2025

#=======================================================
lattice_vector 28.1999999999999993 0.0000000000000000 0.0000000000000000 
lattice_vector 0.0000000000000000 39.4799999999999969 0.0000000000000000 
lattice_vector 0.0000000000000000 0.0000000000000000 32.3296083400000001 
atom_frac 0.2660246492907802 0.3752978391590679 -0.0000824655830025 Au
atom_frac 0.3659881975177305 0.3754408161094225 -0.0022605504289261 Au
atom_frac 0.4660554588652482 0.3752989865754813 -0.0011775196779263 Au
atom_frac 0.5661086549645391 0.3754915721884499 -0.0033911697551978 Au
atom_frac 0.6661988893617021 0.3753112266970619 -0.0015449079826372 Au
atom_frac 0.7662957748226951 0.3754614186930091 -0.0026221090929554 Au
atom_frac 0.8662641907801419 0.3753155329280649 -0.0001956887300788 Au
atom_frac 0.9662138053191490 0.3754852601317123 -0.0015388222299757 Au
atom_frac 0.0661272400709220 0.3753196742654509 0.0004482717466784 Au
atom_frac 0.1660519634751773 0.3754743541033435 -0.0014895052081537 Au
atom_frac 0.3158668074468085 0.4379291253799393 -0.0007336927732172 Au
atom_frac 0.4161148592198582 0.4379501375379940 -0.0013472758327885 Au
atom_frac 0.5159752010638298 0.4379693606889565 -0.0017420780173918 Au
atom_frac 0.6162924230496455 0.4379962619047619 -0.0019134116735792 Au
atom_frac 0.7161878159574470 0.4380099242654509 -0.0013785295364948 Au
atom_frac 0.8163867684397164 0.4379768168693010 -0.0005877797776006 Au
atom_frac 0.9161450166666667 0.4379983510638298 0.0000846165524565 Au
atom_frac 0.0162382865248227 0.4379882130192503 0.0003975965271468 Au
atom_frac 0.1159771092198582 0.4379673903242149 0.0002419290056887 Au
atom_frac 0.2161052340425532 0.4379700387537994 -0.0001134668864968 Au
atom_frac 0.2660044237588653 0.5005142646909828 0.0020962153109709 Au
atom_frac 0.3659515453900709 0.5006251496960487 -0.0001956386212132 Au
atom_frac 0.4660112308510638 0.5005014779635258 0.0007116396140047 Au
atom_frac 0.5661386109929079 0.5006531907294833 -0.0010052738547961 Au
atom_frac 0.6662691691489362 0.5005415787740629 0.0007528869432632 Au
atom_frac 0.7663241609929079 0.5006570265957447 0.0001591556552708 Au
atom_frac 0.8662403865248227 0.5005437269503547 0.0024978425086606 Au
atom_frac 0.9661810156028370 0.5006472745694023 0.0014861411092492 Au
atom_frac 0.0661112524822695 0.5005407692502534 0.0029194804653176 Au
atom_frac 0.1660270361702128 0.5006383140830801 0.0011375668276964 Au
atom_frac 0.3159325304964539 0.5629402545592705 0.0015075824453987 Au
atom_frac 0.4159589173758865 0.5629415795339413 0.0006478269015739 Au
atom_frac 0.5159919546099291 0.5629374017223912 -0.0002761870761346 Au
atom_frac 0.6162969372340426 0.5629517887537995 -0.0002326090659965 Au
atom_frac 0.7163217475177306 0.5629712203647417 0.0009450739297141 Au
atom_frac 0.8163223542553192 0.5629597834346505 0.0020930612362624 Au
atom_frac 0.9161930819148937 0.5629604820162109 0.0026560262993894 Au
atom_frac 0.0161625039007092 0.5629606950354611 0.0027910616500837 Au
atom_frac 0.1160392773049645 0.5629549280648429 0.0026449958533584 Au
atom_frac 0.2160166570921986 0.5629527203647416 0.0021366540934718 Au
atom_frac 0.2659939539007092 0.6255212246707195 0.0023051689713108 Au
atom_frac 0.3659614326241135 0.6254319121073961 0.0017605023049283 Au
atom_frac 0.4659832283687944 0.6255253001519758 0.0005548189700092 Au
atom_frac 0.5661406386524823 0.6254974090678825 -0.0001584479448723 Au
atom_frac 0.6662891953900710 0.6255418634751774 0.0007884258829224 Au
atom_frac 0.7662907879432626 0.6254384298378927 0.0022938579774951 Au
atom_frac 0.8662325968085107 0.6255139399696049 0.0028593857069906 Au
atom_frac 0.9661639322695036 0.6254297988855116 0.0033355572658323 Au
atom_frac 0.0661005879432624 0.6255104463019251 0.0031509246548454 Au
atom_frac 0.1660450237588653 0.6254305012664642 0.0030346621885491 Au
atom_frac 0.3160827925531915 0.6878353285207700 0.0010623166120298 Au
atom_frac 0.4159447294326241 0.6878518913373860 0.0002816789459442 Au
atom_frac 0.5161477546099291 0.6879305093718339 -0.0002987827720773 Au
atom_frac 0.6161249964539007 0.6879307836879434 -0.0001232173912565 Au
atom_frac 0.7163167787234043 0.6878443302938196 0.0006412994485414 Au
atom_frac 0.8161574556737590 0.6878103462512665 0.0014932813132867 Au
atom_frac 0.9162532216312058 0.6877951732522798 0.0019001352987006 Au
atom_frac 0.0160580464539007 0.6877882487335359 0.0020036781552919 Au
atom_frac 0.1161541627659575 0.6878021380445797 0.0018821613723267 Au
atom_frac 0.2159722879432624 0.6878030319148937 0.0015933663488359 Au
atom_frac 0.2660559950354610 0.7504180980243161 -0.0002423756550835 Au
atom_frac 0.3660582326241135 0.7503010091185410 0.0006452766077648 Au
atom_frac 0.4660550049645391 0.7505231388044580 -0.0011206442595586 Au
atom_frac 0.5661281219858156 0.7503812031408309 0.0001670542972003 Au
atom_frac 0.6662051053191490 0.7505067386018238 -0.0009545890465310 Au
atom_frac 0.7661918347517731 0.7502818850050659 0.0008747445902402 Au
atom_frac 0.8661782670212766 0.7503947056737590 -0.0000144158876006 Au
atom_frac 0.9661474053191490 0.7502322137791287 0.0014296591382709 Au
atom_frac 0.0661099326241135 0.7503810412867276 0.0001339440909540 Au
atom_frac 0.1660819531914894 0.7502454561803445 0.0013026541972639 Au
atom_frac 0.3161679460992908 0.8128843295339412 -0.0005143811154503 Au
atom_frac 0.4159793546099291 0.8129265820668694 -0.0006876359208006 Au
atom_frac 0.5161954404255319 0.8129644027355624 -0.0009146204212878 Au
atom_frac 0.6160596531914895 0.8129567844478218 -0.0008679885541725 Au
atom_frac 0.7162733436170213 0.8129138733535968 -0.0006162020210852 Au
atom_frac 0.8160755751773051 0.8128649817629180 -0.0003962788495693 Au
atom_frac 0.9162461375886526 0.8128390714285715 -0.0002654139793393 Au
atom_frac 0.0160281822695035 0.8128292365754812 -0.0002183963976843 Au
atom_frac 0.1162005599290780 0.8128366266464033 -0.0002735390391061 Au
atom_frac 0.2159892301418440 0.8128540592705169 -0.0003211501942990 Au
atom_frac 0.2660905741134752 0.8756039782168188 -0.0008448945533993 Au
atom_frac 0.3660970198581561 0.8754605162107397 0.0008932276474340 Au
atom_frac 0.4661015723404255 0.8756673490374873 -0.0010108269687748 Au
atom_frac 0.5661298407801419 0.8755023637284701 0.0007743660157190 Au
atom_frac 0.6661533361702128 0.8756602411347518 -0.0009893927468470 Au
atom_frac 0.7661551106382979 0.8754477520263425 0.0009309911732757 Au
atom_frac 0.8661490304964540 0.8755924321175279 -0.0008143364968460 Au
atom_frac 0.9661347241134752 0.8754033503039514 0.0010270025436380 Au
atom_frac 0.0661189347517731 0.8755785962512665 -0.0007909557620085 Au
atom_frac 0.1661057453900709 0.8754102393617023 0.0010014485687395 Au
atom_frac 0.3161930734042553 0.9380561063829789 0.0010291553689759 Au
atom_frac 0.4160096014184398 0.9380779911347519 0.0010252641990404 Au
atom_frac 0.5162096819148937 0.9380918439716313 0.0009798166951750 Au
atom_frac 0.6160460914893617 0.9380860478723405 0.0009930284234306 Au
atom_frac 0.7162420819148937 0.9380708492907802 0.0010192192758250 Au
atom_frac 0.8160577039007093 0.9380432348024317 0.0010559951621115 Au
atom_frac 0.9162294070921987 0.9380314949341441 0.0010571272512978 Au
atom_frac 0.0160359879432624 0.9380240504052686 0.0010619875019494 Au
atom_frac 0.1162031592198582 0.9380288001519757 0.0010340066495219 Au
atom_frac 0.2160162882978723 0.9380393523302939 0.0010648338092425 Au
atom_frac 0.2661021180851064 0.0006414389564336 0.0021022750812576 Au
atom_frac 0.3661105975177305 0.0005543789260385 0.0034914017148901 Au
atom_frac 0.4661087304964540 0.0006681484295846 0.0020691197151694 Au
atom_frac 0.5661275152482270 0.0005699665653495 0.0034517454967721 Au
atom_frac 0.6661459280141845 0.0006665732016211 0.0020658678972416 Au
atom_frac 0.7661433890070922 0.0005493731003040 0.0034995447148680 Au
atom_frac 0.8661441014184398 0.0006369490881459 0.0021029039165898 Au
atom_frac 0.9661360574468085 0.0005248168693009 0.0035050124581868 Au
atom_frac 0.0661237535460993 0.0006293432117528 0.0020869204257115 Au
atom_frac 0.1661160152482270 0.0005288229483283 0.0034938406556644 Au
atom_frac 0.3161362134751773 0.0629158601823708 0.0031451732706020 Au
atom_frac 0.4160766042553192 0.0629231727456940 0.0030988151463638 Au
atom_frac 0.5161493212765957 0.0629322705167173 0.0030654021217258 Au
atom_frac 0.6161043340425533 0.0629308500506586 0.0030623600186800 Au
atom_frac 0.7161777297872342 0.0629202345491388 0.0030866083792465 Au
atom_frac 0.8161213404255320 0.0629121727456940 0.0031434720436827 Au
atom_frac 0.9161705393617022 0.0629019949341439 0.0031547394242265 Au
atom_frac 0.0161103514184397 0.0629017659574468 0.0031748838068355 Au
atom_frac 0.1161501581560284 0.0629037786220871 0.0031624642316963 Au
atom_frac 0.2160884241134752 0.0629063794326241 0.0031656374838719 Au
atom_frac 0.2661022645390071 0.1253474974670719 0.0034991825081912 Au
atom_frac 0.3660955141843972 0.1254260519250253 0.0033157682849925 Au
atom_frac 0.4661044776595745 0.1253587360688957 0.0033264928194920 Au
atom_frac 0.5661230414893618 0.1254359009625127 0.0031742073371496 Au
atom_frac 0.6661447638297873 0.1253600417933131 0.0032957337088483 Au
atom_frac 0.7661610936170213 0.1254243434650456 0.0032803546174974 Au
atom_frac 0.8661579535460994 0.1253449493414387 0.0034638167843638 Au
atom_frac 0.9661488397163120 0.1254181876899696 0.0033903723437436 Au
atom_frac 0.0661368609929078 0.1253412178318136 0.0035331844666572 Au
atom_frac 0.1661178131205674 0.1254213518237082 0.0034011296655257 Au
atom_frac 0.3160107645390071 0.1876831484295846 0.0018953585628251 Au
atom_frac 0.4161360836879433 0.1876838437183384 0.0016761607326048 Au
atom_frac 0.5160225390070923 0.1876786712259372 0.0014904752168117 Au
atom_frac 0.6162119712765958 0.1876793551165147 0.0014378550309403 Au
atom_frac 0.7161146382978725 0.1876783839918947 0.0015671275527738 Au
atom_frac 0.8162566592198582 0.1876758416919960 0.0017669975893064 Au
atom_frac 0.9161086783687944 0.1876744693515704 0.0019134627103868 Au
atom_frac 0.0162240836879433 0.1876809685916920 0.0020001327983920 Au
atom_frac 0.1160607560283688 0.1876814936676799 0.0020373537875034 Au
atom_frac 0.2161728443262411 0.1876854967071935 0.0019854048129802 Au
atom_frac 0.2660671510638298 0.2501149214792300 0.0011386401472255 Au
atom_frac 0.3660328443262412 0.2502421119554205 -0.0004176419292805 Au
atom_frac 0.4660587854609929 0.2501094024822695 0.0004393273141644 Au
atom_frac 0.5661109875886525 0.2502428178824722 -0.0009607363526755 Au
atom_frac 0.6661811989361702 0.2501081238601824 0.0002722430135075 Au
atom_frac 0.7662261074468085 0.2502368568895644 -0.0006317775268168 Au
atom_frac 0.8662088471631206 0.2501086507092199 0.0009351430949009 Au
atom_frac 0.9661937365248228 0.2502531643870314 -0.0001208545417225 Au
atom_frac 0.0661464184397163 0.2501138558763931 0.0012805184512173 Au
atom_frac 0.1661010326241135 0.2502574840425532 -0.0000258691658496 Au
atom_frac 0.3159250390070922 0.3126892748226950 -0.0010699572860956 Au
atom_frac 0.4161060386524823 0.3126991157548126 -0.0015161526079904 Au
atom_frac 0.5159480666666667 0.3126719164133739 -0.0022399677483999 Au
atom_frac 0.6162745421985816 0.3126786319655522 -0.0023143992099472 Au
atom_frac 0.7161355989361703 0.3126930896656535 -0.0018253422491044 Au
atom_frac 0.8163648858156028 0.3126821664133739 -0.0014206021154663 Au
atom_frac 0.9161405095744681 0.3127090790273557 -0.0009242069896353 Au
atom_frac 0.0162720074468085 0.3127153092705168 -0.0006836355630283 Au
atom_frac 0.1160149475177305 0.3127109156534955 -0.0006021449377076 Au
atom_frac 0.2161465312056738 0.3127096456433638 -0.0007878951001236 Au
atom_frac 0.2662172070921986 0.3338968806990882 0.0810644849896749 Au
atom_frac 0.3661913900709220 0.3339476610942250 0.0775572105183134 Au
atom_frac 0.4662025585106384 0.3339681669199595 0.0800175762351967 Au
atom_frac 0.5661124134751774 0.3339981702127660 0.0761319640533573 Au
atom_frac 0.6660661776595745 0.3339753454913881 0.0797426873498586 Au
atom_frac 0.7660793085106384 0.3339341540020264 0.0770889945151745 Au
atom_frac 0.8660522815602838 0.3338717527862209 0.0808590108023560 Au
atom_frac 0.9660908106382979 0.3338807786220871 0.0780452968518702 Au
atom_frac 0.0661372386524823 0.3338463979229990 0.0814327081328323 Au
atom_frac 0.1661784485815603 0.3338966719858156 0.0781589115904520 Au
atom_frac 0.3161937542553192 0.3961690222897670 0.0800702375598281 Au
atom_frac 0.4161862340425532 0.3962096747720365 0.0793110356622403 Au
atom_frac 0.5161355106382979 0.3962222682370821 0.0789680874927667 Au
atom_frac 0.6160761691489363 0.3962194774569403 0.0785953799154500 Au
atom_frac 0.7160679159574469 0.3961884202127660 0.0788249623441000 Au
atom_frac 0.8160811375886525 0.3961515007598785 0.0798361839975201 Au
atom_frac 0.9160699120567377 0.3961214708713273 0.0803767083310110 Au
atom_frac 0.0161067957446809 0.3961182127659575 0.0807393254674981 Au
atom_frac 0.1161517411347518 0.3961303411854104 0.0807686932838358 Au
atom_frac 0.2161946184397163 0.3961474924012158 0.0803736272544030 Au
atom_frac 0.2662622468085107 0.4582534830293820 0.0820252785654378 Au
atom_frac 0.3662200826241135 0.4587313270010132 0.0784460437419577 Au
atom_frac 0.4661929592198582 0.4583048614488349 0.0809292788976608 Au
atom_frac 0.5661301741134752 0.4587553533434651 0.0776853036259208 Au
atom_frac 0.6660455960992908 0.4582932955927053 0.0808093420905327 Au
atom_frac 0.7660253109929078 0.4587433895643365 0.0787741151459925 Au
atom_frac 0.8660099627659575 0.4582338708206687 0.0822563942635131 Au
atom_frac 0.9660700553191490 0.4587148437183385 0.0801155709268330 Au
atom_frac 0.0661561865248227 0.4582283373860183 0.0827363703843744 Au
atom_frac 0.1662033673758865 0.4587191897163121 0.0797556423475064 Au
atom_frac 0.3162854081560283 0.5210543875379939 0.0828303127534888 Au
atom_frac 0.4161197134751773 0.5210622753292806 0.0819383891738170 Au
atom_frac 0.5161496624113475 0.5210544422492401 0.0813924218421262 Au
atom_frac 0.6160468450354611 0.5210746063829788 0.0813897227682901 Au
atom_frac 0.7160776273049646 0.5210686636271530 0.0821458312167106 Au
atom_frac 0.8159389262411348 0.5210508994427558 0.0832926446766846 Au
atom_frac 0.9160559212765957 0.5210536603343465 0.0837725740911342 Au
atom_frac 0.0160419450354610 0.5210671149949342 0.0839129707811363 Au
atom_frac 0.1162195826241135 0.5210591160081054 0.0838255815381152 Au
atom_frac 0.2161715159574468 0.5210737337892605 0.0832855428275813 Au
atom_frac 0.2662806234042553 0.5834910210233031 0.0823781037490911 Au
atom_frac 0.3662685113475178 0.5840166580547114 0.0818042873327305 Au
atom_frac 0.4662132801418440 0.5834472269503547 0.0807071011365058 Au
atom_frac 0.5661060056737589 0.5839730909321176 0.0796094686002002 Au
atom_frac 0.6659849719858156 0.5834739498480244 0.0808622041599407 Au
atom_frac 0.7659398304964540 0.5840188077507599 0.0823368870419171 Au
atom_frac 0.8659728234042554 0.5834667793819656 0.0830532421476282 Au
atom_frac 0.9660569056737589 0.5840581724924013 0.0833568100070587 Au
atom_frac 0.0661529450354610 0.5834854640324215 0.0833011362735241 Au
atom_frac 0.1662419060283688 0.5840625103850051 0.0830528075614788 Au
atom_frac 0.3162936578014184 0.6465061225937184 0.0832154238216175 Au
atom_frac 0.4161287503546099 0.6465291879432625 0.0824000350385934 Au
atom_frac 0.5161607092198582 0.6464876441236069 0.0810758872311164 Au
atom_frac 0.6160036684397163 0.6465047702634246 0.0812475230870675 Au
atom_frac 0.7160551695035461 0.6465263432117528 0.0828166982984242 Au
atom_frac 0.8159150035460994 0.6465121109422493 0.0837907580417041 Au
atom_frac 0.9160613375886525 0.6465316350050659 0.0842619917120840 Au
atom_frac 0.0160421570921986 0.6465560524316111 0.0843824122862851 Au
atom_frac 0.1162204365248227 0.6465483328267478 0.0842016739383735 Au
atom_frac 0.2161715659574468 0.6465476854103345 0.0838905597456427 Au
atom_frac 0.2662500223404256 0.7088981998480244 0.0804273560215979 Au
atom_frac 0.3662506634751773 0.7092745248226952 0.0822855273105359 Au
atom_frac 0.4661523865248228 0.7088955661094226 0.0791116982643904 Au
atom_frac 0.5660929354609929 0.7092681973150963 0.0814332200474780 Au
atom_frac 0.6660428432624115 0.7089009880952382 0.0793914696709870 Au
atom_frac 0.7659721648936171 0.7092885238095238 0.0826073892363151 Au
atom_frac 0.8660064007092200 0.7088934508611956 0.0807679407229095 Au
atom_frac 0.9660688280141845 0.7093282462006080 0.0833368771952157 Au
atom_frac 0.0661415099290780 0.7089237996453901 0.0809386065702026 Au
atom_frac 0.1662185517730497 0.7093223414387032 0.0831616780421535 Au
atom_frac 0.3162450343971631 0.7714803161094226 0.0809212871522217 Au
atom_frac 0.4161329372340426 0.7714757444275583 0.0807123164796125 Au
atom_frac 0.5161397219858157 0.7714793693009119 0.0803250538234018 Au
atom_frac 0.6160472617021278 0.7714869267983790 0.0804106372913765 Au
atom_frac 0.7160662765957447 0.7714845367274570 0.0808255751977972 Au
atom_frac 0.8159800755319150 0.7714937373353598 0.0811276691760875 Au
atom_frac 0.9160871918439717 0.7715120468591693 0.0813424623751566 Au
atom_frac 0.0160590677304965 0.7715253573961500 0.0814315980049389 Au
atom_frac 0.1161866723404256 0.7715202915400203 0.0813242802804706 Au
atom_frac 0.2161468301418440 0.7715073520770011 0.0812681206146650 Au
atom_frac 0.2661811886524823 0.8338160977710234 0.0785153928654120 Au
atom_frac 0.3661844606382979 0.8337500764944276 0.0816239213988573 Au
atom_frac 0.4661409829787234 0.8338111965552178 0.0782292616539629 Au
atom_frac 0.5661060556737589 0.8337419794832828 0.0813929031346873 Au
atom_frac 0.6660745521276596 0.8338148449848025 0.0782689970564611 Au
atom_frac 0.7660528666666667 0.8337587500000001 0.0816979420914321 Au
atom_frac 0.8660632950354611 0.8338245965045593 0.0785753741055064 Au
atom_frac 0.9660928992907802 0.8337769110942249 0.0818923743881025 Au
atom_frac 0.0661265248226950 0.8338340853596760 0.0786305745886435 Au
atom_frac 0.1661648602836880 0.8337736628672747 0.0818498477362006 Au
atom_frac 0.3161570056737589 0.8960830250759879 0.0813157042409132 Au
atom_frac 0.4161318152482270 0.8960774450354611 0.0813180881237982 Au
atom_frac 0.5161262687943263 0.8960833576494428 0.0812193733492040 Au
atom_frac 0.6160875737588654 0.8960831800911856 0.0812613002412884 Au
atom_frac 0.7160820219858157 0.8960879394630195 0.0812932959892455 Au
atom_frac 0.8160719677304965 0.8960868239614995 0.0813740742644580 Au
atom_frac 0.9160825468085108 0.8960924012158055 0.0813666556778337 Au
atom_frac 0.0161044897163121 0.8960926266464034 0.0814113419599812 Au
atom_frac 0.1161299872340426 0.8960933069908815 0.0813592318328716 Au
atom_frac 0.2161447645390071 0.8960827646909829 0.0813918991014909 Au
atom_frac 0.2661440010638298 0.9587251889564337 0.0808364083015056 Au
atom_frac 0.3661472737588653 0.9582408895643364 0.0834243332500575 Au
atom_frac 0.4661331124113476 0.9587377859675785 0.0807961238666834 Au
atom_frac 0.5661214475177305 0.9582532259371835 0.0833819238281561 Au
atom_frac 0.6661087120567377 0.9587430182370822 0.0807975513507257 Au
atom_frac 0.7660948709219859 0.9582480458459980 0.0834372505113992 Au
atom_frac 0.8661022390070923 0.9587303343465047 0.0808420832851945 Au
atom_frac 0.9661083039007093 0.9582373042046608 0.0834446196077858 Au
atom_frac 0.0661245975177305 0.9587271757852078 0.0808227663174963 Au
atom_frac 0.1661403680851064 0.9582340828267477 0.0834324994485844 Au
atom_frac 0.3160939163120568 0.0211160845997974 0.0844180650534909 Au
atom_frac 0.4161728567375887 0.0211186935157042 0.0844119180566603 Au
atom_frac 0.5160790343971632 0.0211350233029382 0.0843622880090851 Au
atom_frac 0.6161513521276597 0.0211315704154002 0.0843827782047297 Au
atom_frac 0.7160589237588654 0.0211292537993921 0.0843891160482892 Au
atom_frac 0.8161355326241135 0.0211149931610942 0.0844377757778924 Au
atom_frac 0.9160565592198582 0.0211056773049645 0.0844284097504164 Au
atom_frac 0.0161506726950355 0.0210960428064843 0.0844437659525324 Au
atom_frac 0.1160810975177305 0.0211016841438703 0.0844209478598342 Au
atom_frac 0.2161751258865248 0.0210947373353597 0.0844449914545423 Au
atom_frac 0.2661534776595745 0.0841395025329281 0.0836361839451842 Au
atom_frac 0.3661531085106383 0.0835756684397163 0.0836535018165952 Au
atom_frac 0.4661409503546100 0.0841776314589666 0.0835022608875812 Au
atom_frac 0.5661287585106383 0.0836037322695036 0.0835605786370624 Au
atom_frac 0.6661093787234043 0.0841809569402229 0.0834826349152116 Au
atom_frac 0.7660968585106384 0.0835790433130699 0.0836392919321088 Au
atom_frac 0.8660969606382979 0.0841425382472138 0.0836142136821197 Au
atom_frac 0.9661080092198582 0.0835435564842959 0.0836926776700939 Au
atom_frac 0.0661282595744681 0.0841225825734549 0.0836507046902258 Au
atom_frac 0.1661400343971631 0.0835418928571429 0.0836934203329727 Au
atom_frac 0.3161057624113476 0.1466754703647417 0.0844489079882246 Au
atom_frac 0.4162043156028369 0.1466964488348531 0.0843065957167114 Au
atom_frac 0.5160789907801419 0.1467290795339413 0.0842255662785428 Au
atom_frac 0.6161628581560284 0.1467256187943263 0.0841870381285293 Au
atom_frac 0.7160326255319149 0.1467112272036474 0.0842689191080995 Au
atom_frac 0.8161327613475178 0.1466747720364742 0.0843715999066137 Au
atom_frac 0.9160382939716313 0.1466483920972644 0.0844553680108084 Au
atom_frac 0.0161572812056738 0.1466290309017224 0.0844861466082332 Au
atom_frac 0.1160830258865248 0.1466334422492402 0.0845148237264417 Au
atom_frac 0.2162037177304965 0.1466404531408308 0.0844806247349670 Au
atom_frac 0.2661867390070922 0.2094550136778116 0.0832256568561944 Au
atom_frac 0.3661797170212767 0.2090706018237082 0.0807023463619232 Au
atom_frac 0.4661777659574468 0.2095334531408308 0.0827174836724298 Au
atom_frac 0.5661289617021277 0.2091182117527862 0.0802277674607920 Au
atom_frac 0.6660927092198582 0.2095420458459980 0.0825955490062705 Au
atom_frac 0.7660784542553192 0.2090718999493414 0.0805425340330615 Au
atom_frac 0.8660735897163122 0.2094590385005066 0.0830768233179283 Au
atom_frac 0.9660982000000000 0.2090075433130699 0.0808634553350113 Au
atom_frac 0.0661290705673759 0.2094200858662614 0.0833082538976406 Au
atom_frac 0.1661635070921986 0.2090102847011145 0.0809317011354799 Au
atom_frac 0.3161402634751773 0.2716668343465046 0.0809656384473230 Au
atom_frac 0.4162035804964539 0.2716915896656535 0.0804549505408577 Au
atom_frac 0.5160826975177305 0.2717629582066869 0.0801180615230429 Au
atom_frac 0.6161579595744682 0.2717555709219858 0.0799563895985014 Au
atom_frac 0.7160423446808512 0.2717019863221884 0.0802423197558600 Au
atom_frac 0.8161068180851065 0.2716667525329281 0.0806701838937279 Au
atom_frac 0.9160394982269504 0.2716220347011145 0.0809469821742975 Au
atom_frac 0.0161480978723404 0.2716091712259373 0.0811330923781924 Au
atom_frac 0.1161082453900709 0.2716122730496454 0.0812082711423284 Au
atom_frac 0.2162125063829787 0.2716343239614996 0.0810969289335968 Au
atom_frac 0.2659137475177305 0.3334373442249240 0.1762989436821615 Cl
atom_frac 0.2671264099290780 0.4049182006079028 0.2649034429966744 Cl
atom_frac 0.2660137319148936 0.3336360916919960 0.2580418077529980 Na
atom_frac 0.2658314177304965 0.4050295395136779 0.1779616523495441 Na
atom_frac 0.2654780262411348 0.4767217707700102 0.1766061379387561 Cl
atom_frac 0.2668974432624114 0.5482733196555218 0.2651905807158318 Cl
atom_frac 0.2663422854609929 0.4762799858156029 0.2579149797395907 Na
atom_frac 0.2657219088652483 0.5480030767477204 0.1788799870131678 Na
atom_frac 0.2658139950354610 0.6191535602836881 0.1777851952165035 Cl
atom_frac 0.2663789170212766 0.6901049865754814 0.2657228225487374 Cl
atom_frac 0.2661344205673759 0.6189241334853091 0.2591241063577945 Na
atom_frac 0.2656232102836880 0.6899507651975685 0.1800050470391810 Na
atom_frac 0.2658650482269504 0.7614406686930092 0.1767978111546773 Cl
atom_frac 0.2660275134751773 0.8331051907294834 0.2647755268166666 Cl
atom_frac 0.2659576021276596 0.7617347082066870 0.2584688518994908 Na
atom_frac 0.2657606081560284 0.8333510131712260 0.1798934678959368 Na
atom_frac 0.2658354085106383 0.9050917814083080 0.1769059702131857 Cl
atom_frac 0.2658666595744681 0.9761665542046607 0.2656074280174840 Cl
atom_frac 0.2658541680851064 0.9048374754305979 0.2586486919995889 Na
atom_frac 0.2658048780141844 0.9769703888044581 0.1805305848007684 Na
atom_frac 0.2658350677304965 0.0478903857649443 0.1785071148808108 Cl
atom_frac 0.2659393861702128 0.1194115395136778 0.2659780684494367 Cl
atom_frac 0.2658469216312057 0.0478718237082067 0.2601108922063731 Na
atom_frac 0.2658183581560284 0.1191294792299899 0.1805902694087509 Na
atom_frac 0.2658770602836880 0.1902736162613982 0.1778801700757009 Cl
atom_frac 0.2662098326241135 0.2625230121580547 0.2645867190855057 Cl
atom_frac 0.2659152840425532 0.1908312297365755 0.2595665029946354 Na
atom_frac 0.2658131638297873 0.2615314457953394 0.1789412005601798 Na
atom_frac 0.3655216460992908 0.3333798736068896 0.1791680034933575 Na
atom_frac 0.4652893095744681 0.3334427935663627 0.1750498837005088 Cl
atom_frac 0.3661848081560284 0.4057418551165147 0.2576334452432776 Na
atom_frac 0.4652684542553192 0.4051084855623101 0.2632887927525075 Cl
atom_frac 0.4661410443262412 0.3337029184397163 0.2565669278380129 Na
atom_frac 0.3664820851063830 0.3341723128166160 0.2653731842270750 Cl
atom_frac 0.4655376329787234 0.4052620324214793 0.1766881386228386 Na
atom_frac 0.3656931109929079 0.4048330802938197 0.1757752308730877 Cl
atom_frac 0.3660063141843972 0.4770219062816616 0.1768248266381565 Na
atom_frac 0.4661355354609930 0.4764542667173253 0.1761454636292077 Cl
atom_frac 0.3664330843971632 0.5472459658054712 0.2590746813853916 Na
atom_frac 0.4657136627659575 0.5467877178318137 0.2652842511979531 Cl
atom_frac 0.4662357897163121 0.4761152183383993 0.2582872870646103 Na
atom_frac 0.3676881957446809 0.4764119951874367 0.2602345528445706 Cl
atom_frac 0.4654247606382979 0.5472741646403243 0.1773091773867125 Na
atom_frac 0.3657673457446808 0.5481971061296860 0.1773376240660019 Cl
atom_frac 0.3651288982269504 0.6190410230496454 0.1789051326936057 Na
atom_frac 0.4643845581560284 0.6187595468591692 0.1753975352984434 Cl
atom_frac 0.3661935535460993 0.6901651831306991 0.2588298163713542 Na
atom_frac 0.4668176070921986 0.6890253611955421 0.2658237433506749 Cl
atom_frac 0.4663467985815604 0.6183158287740629 0.2562544003896831 Na
atom_frac 0.3669057471631206 0.6184127173252280 0.2667044292439455 Cl
atom_frac 0.4653918535460993 0.6899418429584599 0.1783976205138277 Na
atom_frac 0.3658295127659575 0.6899012793819655 0.1775122225313046 Cl
atom_frac 0.3656839868794327 0.7614891811043567 0.1787345110782124 Na
atom_frac 0.4656298744680851 0.7612724480749747 0.1763404765082285 Cl
atom_frac 0.3659186464539008 0.8331772028875380 0.2583613031174753 Na
atom_frac 0.4659292471631206 0.8328930217831814 0.2645464095962506 Cl
atom_frac 0.4660340500000000 0.7614131306990882 0.2578452869682986 Na
atom_frac 0.3663488152482270 0.7614048596757853 0.2644191302937387 Cl
atom_frac 0.4657112315602837 0.8333347816616008 0.1796236437177946 Na
atom_frac 0.3657904312056738 0.8331892431610943 0.1764060046760220 Cl
atom_frac 0.3658031613475178 0.9051772145390071 0.1791935277741134 Na
atom_frac 0.4658039680851064 0.9050400382472138 0.1768361942364317 Cl
atom_frac 0.3658342351063830 0.9760389751773051 0.2595812374756409 Na
atom_frac 0.4658338464539007 0.9761026048632219 0.2655824679254373 Cl
atom_frac 0.4658444187943263 0.9047355526849038 0.2585605591657471 Na
atom_frac 0.3659085074468086 0.9044776096757854 0.2644854688641737 Cl
atom_frac 0.4657887836879433 0.9769149609929080 0.1804965076790040 Na
atom_frac 0.3658089297872341 0.9765796970618036 0.1777565979013033 Cl
atom_frac 0.3657993709219859 0.0476952226443769 0.1805555173638704 Na
atom_frac 0.4657985219858156 0.0478196884498480 0.1784517340676203 Cl
atom_frac 0.3658807897163120 0.1189981859169200 0.2600215239724738 Na
atom_frac 0.4658945095744681 0.1194055179837893 0.2658409241959904 Cl
atom_frac 0.4658414244680851 0.0478247849544073 0.2600466742926215 Na
atom_frac 0.3658758393617021 0.0475692375886525 0.2659078551027074 Cl
atom_frac 0.4657381812056738 0.1190046127152989 0.1804103624968319 Na
atom_frac 0.3658013574468085 0.1189919143870314 0.1784098569750876 Cl
atom_frac 0.3657197400709220 0.1897733953900710 0.1802599959984545 Na
atom_frac 0.4656830648936171 0.1901493110435664 0.1775525592401903 Cl
atom_frac 0.3660490989361702 0.2621106365248227 0.2581938745503528 Na
atom_frac 0.4661373375886526 0.2627225628166160 0.2642146607582441 Cl
atom_frac 0.4659523308510639 0.1908155243161094 0.2591338809890451 Na
atom_frac 0.3660668992907802 0.1909135149442756 0.2655750524319528 Cl
atom_frac 0.4655879145390071 0.2613243340932118 0.1780835792828538 Na
atom_frac 0.3658220911347518 0.2617955032928065 0.1766362561508223 Cl
atom_frac 0.5655890929078015 0.3329274569402229 0.1762245338725932 Na
atom_frac 0.6660190932624114 0.3332001322188450 0.1743304172054192 Cl
atom_frac 0.5667571432624113 0.4051801453900710 0.2558982089419274 Na
atom_frac 0.6661721262411349 0.4051583034447822 0.2604260132524699 Cl
atom_frac 0.6652708202127660 0.3339427236575482 0.2559929685185911 Na
atom_frac 0.5656875709219858 0.3325083941236069 0.2598884815317871 Cl
atom_frac 0.6662290882978724 0.4053395260891591 0.1755807546538314 Na
atom_frac 0.5654699478723405 0.4050250539513678 0.1747027829907821 Cl
atom_frac 0.5657080241134752 0.4769664199594732 0.1766009689927472 Na
atom_frac 0.6656334287234044 0.4766732170719352 0.1758167185393128 Cl
atom_frac 0.5656985705673759 0.5481039536474164 0.2570964220347867 Na
atom_frac 0.6647715471631207 0.5476092814083080 0.2625752629207385 Cl
atom_frac 0.6650478333333334 0.4763468082573455 0.2578842057818755 Na
atom_frac 0.5654301634751774 0.4768131380445796 0.2619031236306032 Cl
atom_frac 0.6659719783687944 0.5476104587132726 0.1770900800835374 Na
atom_frac 0.5652129812056738 0.5473326727456941 0.1753661414755017 Cl
atom_frac 0.5657846000000001 0.6190261466565350 0.1739589846203500 Na