#===============================================================================
# Created using the Atomic Simulation Environment (ASE)

# Fri Sep 26 23:47:18 2025

#=======================================================
lattice_vector 28.1999999999999993 0.0000000000000000 0.0000000000000000 
lattice_vector 0.0000000000000000 39.4799999999999969 0.0000000000000000 
lattice_vector 0.0000000000000000 0.0000000000000000 32.3296083400000001 
atom 7.5018951100000004 14.8167586900000003 -0.0026660800000000 Au
atom 10.3208671699999996 14.8224034200000006 -0.0730827100000000 Au
atom 13.1427639400000000 14.8168039900000004 -0.0380687500000000 Au
atom 15.9642640700000005 14.8244072700000000 -0.1096351900000000 Au
atom 18.7868086800000000 14.8172872299999998 -0.0499462700000000 Au
atom 21.6095408499999984 14.8232168099999999 -0.0847717600000000 Au
atom 24.4286501800000018 14.8174572399999995 -0.0063265400000000 Au
atom 27.2472293100000016 14.8241580699999993 -0.0497495200000000 Au
atom 1.8647881700000000 14.8176207400000006 0.0144924500000000 Au
atom 4.6826653699999996 14.8237275000000004 -0.0481551200000000 Au
atom 8.9074439699999992 17.2894418700000010 -0.0237200000000000 Au
atom 11.7344390300000008 17.2902714300000007 -0.0435569000000000 Au
atom 14.5505006699999999 17.2910303600000006 -0.0563207000000000 Au
atom 17.3794463300000004 17.2920924199999995 -0.0618598500000000 Au
atom 20.1964964100000017 17.2926318099999996 -0.0445673200000000 Au
atom 23.0221068699999982 17.2913247299999995 -0.0190026900000000 Au
atom 25.8352894699999993 17.2921748999999991 0.0027356200000000 Au
atom 0.4579196800000000 17.2917746500000007 0.0128541400000000 Au
atom 3.2705544799999999 17.2909525700000017 0.0078214700000000 Au
atom 6.0941675999999996 17.2910571299999987 -0.0036683400000000 Au
atom 7.5013247500000002 19.7603031700000003 0.0677698200000000 Au
atom 10.3198335799999992 19.7646809099999992 -0.0063249200000000 Au
atom 13.1415167099999994 19.7597983500000005 0.0230070300000000 Au
atom 15.9651088300000001 19.7657879700000016 -0.0325001100000000 Au
atom 18.7887905699999997 19.7613815300000013 0.0243405400000000 Au
atom 21.6103413400000015 19.7659394100000014 0.0051454400000000 Au
atom 24.4279788999999994 19.7614663399999984 0.0807542700000000 Au
atom 27.2463046400000017 19.7655543999999992 0.0480463600000000 Au
atom 1.8643373200000000 19.7613495700000001 0.0943856600000000 Au
atom 4.6819624199999996 19.7652006399999998 0.0367770900000000 Au
atom 8.9092973600000001 22.2248812499999993 0.0487395500000000 Au
atom 11.7300414699999997 22.2249335600000002 0.0209439900000000 Au
atom 14.5509731200000001 22.2247686199999990 -0.0089290200000000 Au
atom 17.3795736299999994 22.2253366200000002 -0.0075201600000000 Au
atom 20.2002732800000011 22.2261037799999990 0.0305538700000000 Au
atom 23.0202903899999995 22.2256522499999996 0.0676678500000000 Au
atom 25.8366449100000004 22.2256798300000007 0.0858682900000000 Au
atom 0.4557826100000000 22.2256882400000002 0.0902339300000000 Au
atom 3.2723076199999999 22.2254605599999984 0.0855116800000000 Au
atom 6.0916697299999996 22.2253733999999987 0.0690771900000000 Au
atom 7.5010294999999996 24.6955779500000006 0.0745252100000000 Au
atom 10.3201123999999993 24.6920518899999983 0.0569163500000000 Au
atom 13.1407270399999998 24.6957388500000015 0.0179370800000000 Au
atom 15.9651660100000008 24.6946377099999985 -0.0051225600000000 Au
atom 18.7893553100000013 24.6963927699999992 0.0254895000000000 Au
atom 21.6094002200000013 24.6923092100000012 0.0741595300000000 Au
atom 24.4277592299999995 24.6952903500000005 0.0924428200000000 Au
atom 27.2458228899999995 24.6919684599999982 0.1078372600000000 Au
atom 1.8640365800000001 24.6951524199999994 0.1018681600000000 Au
atom 4.6824696699999997 24.6919961900000011 0.0981094400000000 Au
atom 8.9135347500000002 27.1557387699999992 0.0343442800000000 Au
atom 11.7296413699999995 27.1563926699999989 0.0091065700000000 Au
atom 14.5553666800000006 27.1594965100000003 -0.0096595300000000 Au
atom 17.3747249000000004 27.1595073400000011 -0.0039835700000000 Au
atom 20.2001331600000000 27.1560941599999985 0.0207329600000000 Au
atom 23.0156402500000006 27.1547524699999983 0.0482772000000000 Au
atom 25.8383408500000016 27.1541534400000018 0.0614306300000000 Au
atom 0.4528369100000000 27.1538800599999988 0.0647781300000000 Au
atom 3.2755473899999998 27.1544284100000013 0.0608495400000000 Au
atom 6.0904185200000001 27.1544637000000009 0.0515129100000000 Au
atom 7.5027790599999999 29.6265065099999987 -0.0078359100000000 Au
atom 10.3228421600000004 29.6218838399999989 0.0208615400000000 Au
atom 13.1427511399999997 29.6306535199999992 -0.0362299900000000 Au
atom 15.9648130399999992 29.6250499000000005 0.0054008000000000 Au
atom 18.7869839700000014 29.6300060400000014 -0.0308614900000000 Au
atom 21.6066097399999997 29.6211288199999991 0.0282801500000000 Au
atom 24.4262271300000009 29.6255829800000008 -0.0004660600000000 Au
atom 27.2453568299999986 29.6191677999999996 0.0462203200000000 Au
atom 1.8643000999999999 29.6250435100000011 0.0043303600000000 Au
atom 4.6835110799999997 29.6196906099999993 0.0421143000000000 Au
atom 8.9159360799999998 32.0926733299999967 -0.0166297400000000 Au
atom 11.7306177999999992 32.0943414600000025 -0.0222310000000000 Au
atom 14.5567114199999992 32.0958346199999980 -0.0295693200000000 Au
atom 17.3728822200000010 32.0955338500000025 -0.0280617300000000 Au
atom 20.1989082899999985 32.0938397199999983 -0.0199215700000000 Au
atom 23.0133312200000013 32.0919094799999982 -0.0128115400000000 Au
atom 25.8381410799999998 32.0908865399999996 -0.0085807300000000 Au
atom 0.4519947400000000 32.0904982599999968 -0.0070606700000000 Au
atom 3.2768557899999999 32.0907900200000000 -0.0088434100000000 Au
atom 6.0908962899999999 32.0914782600000024 -0.0103826600000000 Au
atom 7.5037541900000004 34.5688450600000010 -0.0273151100000000 Au
atom 10.3239359600000000 34.5631811800000008 0.0288777000000000 Au
atom 13.1440643399999999 34.5713469399999980 -0.0326796400000000 Au
atom 15.9648615100000004 34.5648333199999982 0.0250349500000000 Au
atom 18.7855240799999983 34.5710663199999999 -0.0319866800000000 Au
atom 21.6055741200000000 34.5626772500000001 0.0300985800000000 Au
atom 24.4254026599999996 34.5683892200000003 -0.0263271800000000 Au
atom 27.2449992200000004 34.5609242700000010 0.0332025900000000 Au
atom 1.8645539600000001 34.5678429800000018 -0.0255712900000000 Au
atom 4.6841820199999997 34.5611962500000018 0.0323764400000000 Au
atom 8.9166446700000002 37.0344550800000007 0.0332721900000000 Au
atom 11.7314707600000006 37.0353190900000016 0.0331463900000000 Au
atom 14.5571130300000000 37.0358659999999986 0.0316770900000000 Au
atom 17.3724997799999983 37.0356371700000011 0.0321042200000000 Au
atom 20.1980267100000006 37.0350371299999992 0.0329509600000000 Au
atom 23.0128272500000008 37.0339469099999974 0.0341399100000000 Au
atom 25.8376692800000001 37.0334834200000032 0.0341765100000000 Au
atom 0.4522148600000000 37.0331895099999997 0.0343336400000000 Au
atom 3.2769290899999999 37.0333770299999969 0.0334290300000000 Au
atom 6.0916593299999997 37.0337936299999981 0.0344256600000000 Au
atom 7.5040797299999999 0.0253240100000000 0.0679657300000000 Au
atom 10.3243188499999992 0.0218868800000000 0.1128756500000000 Au
atom 13.1442662000000006 0.0263785000000000 0.0668938300000000 Au
atom 15.9647959299999993 0.0225022800000000 0.1115935800000000 Au
atom 18.7853151700000005 0.0263163100000000 0.0667887000000000 Au
atom 21.6052435699999990 0.0216892500000000 0.1131389100000000 Au
atom 24.4252636599999988 0.0251467500000000 0.0679860600000000 Au
atom 27.2450368199999993 0.0207197700000000 0.1133156800000000 Au
atom 1.8646898500000000 0.0248464700000000 0.0674693200000000 Au
atom 4.6844716300000000 0.0208779300000000 0.1129545000000000 Au
atom 8.9150412200000009 2.4839181600000000 0.1016822200000000 Au
atom 11.7333602399999997 2.4842068600000000 0.1001834800000000 Au
atom 14.5554108600000003 2.4845660399999998 0.0991032500000000 Au
atom 17.3741422199999995 2.4845099600000000 0.0990049000000000 Au
atom 20.1962119800000011 2.4840908599999998 0.0997888400000000 Au
atom 23.0146218000000005 2.4837725800000001 0.1016272200000000 Au
atom 25.8360092100000003 2.4833707600000001 0.1019914900000000 Au
atom 0.4543119100000000 2.4833617200000000 0.1026427500000000 Au
atom 3.2754344600000000 2.4834411799999998 0.1022412300000000 Au
atom 6.0936935600000002 2.4835438600000002 0.1023438200000000 Au
atom 7.5040838599999997 4.9487192000000002 0.1131272000000000 Au
atom 10.3238935000000005 4.9518205300000000 0.1071974900000000 Au
atom 13.1441462700000002 4.9491629000000001 0.1075442100000000 Au
atom 15.9646697700000004 4.9522093700000003 0.1026208800000000 Au
atom 18.7852823399999984 4.9492144500000004 0.1065497800000000 Au
atom 21.6057428400000013 4.9517530799999996 0.1060525800000000 Au
atom 24.4256542900000007 4.9486185999999996 0.1119838400000000 Au
atom 27.2453972799999988 4.9515100500000004 0.1096094100000000 Au
atom 1.8650594800000000 4.9484712799999997 0.1142264700000000 Au
atom 4.6845223300000001 4.9516349699999997 0.1099571900000000 Au
atom 8.9115035599999999 7.4097306999999999 0.0612762000000000 Au
atom 11.7350375600000003 7.4097581500000000 0.0541896200000000 Au
atom 14.5518356000000004 7.4095539400000003 0.0481864800000000 Au
atom 17.3771775899999987 7.4095809399999997 0.0464852900000000 Au
atom 20.1944328000000013 7.4095426000000000 0.0506646200000000 Au
atom 23.0184377900000001 7.4094422299999998 0.0571263400000000 Au
atom 25.8342647300000010 7.4093880499999996 0.0618615000000000 Au
atom 0.4575191600000000 7.4096446399999998 0.0646635100000000 Au
atom 3.2729133199999998 7.4096653699999999 0.0658668500000000 Au
atom 6.0960742100000003 7.4098234100000004 0.0641873600000000 Au
atom 7.5030936600000002 9.8745370999999995 0.0368117900000000 Au
atom 10.3221262100000004 9.8795585799999994 -0.0135022000000000 Au
atom 13.1428577499999992 9.8743192099999995 0.0142032800000000 Au
atom 15.9643298500000004 9.8795864499999997 -0.0310602300000000 Au
atom 18.7863098099999988 9.8742687300000007 0.0088015100000000 Au
atom 21.6075762299999994 9.8793511100000000 -0.0204251200000000 Au
atom 24.4270894900000002 9.8742895300000004 0.0302328100000000 Au
atom 27.2466633700000003 9.8799949300000005 -0.0039071800000000 Au
atom 1.8653290000000000 9.8744950300000003 0.0413986600000000 Au
atom 4.6840491200000001 9.8801654699999997 -0.0008363400000000 Au
atom 8.9090860999999997 12.3449725699999995 -0.0345913000000000 Au
atom 11.7341902900000008 12.3453610900000008 -0.0490166200000000 Au
atom 14.5497354800000007 12.3442872599999998 -0.0724172800000000 Au
atom 17.3789420899999989 12.3445523900000005 -0.0748236200000000 Au
atom 20.1950238900000016 12.3451231799999999 -0.0590126000000000 Au
atom 23.0214897799999996 12.3446919299999998 -0.0459275100000000 Au
atom 25.8351623699999990 12.3457544400000003 -0.0298792500000000 Au
atom 0.4588706100000000 12.3460004100000003 -0.0221016700000000 Au
atom 3.2716215200000001 12.3458269499999993 -0.0194671100000000 Au
atom 6.0953321799999998 12.3457768100000003 -0.0254723400000000 Au
atom 7.5073252400000001 13.1822488500000006 2.6207830500000000 Au
atom 10.3265972000000001 13.1842536599999995 2.5073942400000000 Au
atom 13.1469121500000004 13.1850632300000008 2.5869369000000000 Au
atom 15.9643700600000003 13.1862477600000005 2.4613165800000001 Au
atom 18.7830662100000012 13.1853466400000006 2.5780498500000002 Au
atom 21.6034365000000008 13.1837204000000003 2.4922569999999999 Au
atom 24.4226743400000004 13.1812567999999999 2.6141401499999999 Au
atom 27.2437608599999983 13.1816131399999996 2.5231738799999999 Au
atom 1.8650701300000001 13.1802557900000004 2.6326875599999999 Au
atom 4.6862322499999998 13.1822406099999991 2.5268470000000001 Au
atom 8.9166638700000007 15.6407530000000001 2.5886394199999998 Au
atom 11.7364517999999993 15.6423579600000000 2.5640947199999999 Au
atom 14.5550213999999993 15.6428551500000008 2.5530073400000002 Au
atom 17.3733479700000011 15.6427449700000007 2.5409578499999999 Au
atom 20.1931152300000001 15.6415188300000008 2.5483801599999998 Au
atom 23.0134880799999983 15.6400612500000005 2.5810725600000000 Au
atom 25.8331715200000005 15.6388756699999991 2.5985475000000000 Au
atom 0.4542116400000000 15.6387470400000002 2.6102707700000001 Au
atom 3.2754791000000001 15.6392258700000006 2.6112202199999999 Au
atom 6.0966882399999998 15.6399030000000003 2.5984478900000001 Au
atom 7.5085953600000002 18.0918475100000009 2.6518451299999999 Au
atom 10.3274063300000005 18.1107127900000009 2.5361298699999999 Au
atom 13.1466414500000006 18.0938759299999994 2.6164118900000002 Au
atom 15.9648709100000001 18.1116613499999985 2.5115354399999998 Au
atom 18.7824858100000007 18.0934193100000016 2.6125343800000000 Au
atom 21.6019137699999995 18.1111890200000012 2.5467362900000001 Au
atom 24.4214809499999994 18.0910732199999984 2.6593170100000001 Au
atom 27.2431755600000010 18.1100620300000017 2.5901050300000001 Au
atom 1.8656044599999999 18.0908547599999991 2.6748344500000001 Au
atom 4.6869349600000003 18.1102336100000016 2.5784686799999998 Au
atom 8.9192485099999992 20.5712272200000008 2.6778715700000002 Au
atom 11.7345759199999993 20.5715386299999992 2.6490360300000000 Au
atom 14.5554204800000004 20.5712293799999983 2.6313851200000000 Au
atom 17.3725210300000015 20.5720254599999990 2.6312978600000001 Au
atom 20.1933890900000002 20.5717908399999985 2.6557425499999998 Au
atom 23.0094777199999996 20.5710895100000002 2.6928185800000000 Au
atom 25.8327769799999984 20.5711985099999985 2.7083345099999998 Au
atom 0.4523828500000000 20.5717296999999988 2.7128734799999998 Au
atom 3.2773922299999998 20.5714138999999996 2.7100482200000000 Au
atom 6.0960367499999997 20.5719910100000014 2.6925889800000000 Au
atom 7.5091135800000002 23.0362255100000013 2.6632518300000001 Au
atom 10.3287720200000006 23.0569776600000012 2.6447005699999999 Au
atom 13.1472145000000005 23.0344965200000011 2.6092289700000002 Au
atom 15.9641893600000007 23.0552576299999998 2.5737429399999998 Au
atom 18.7807762099999991 23.0355515400000002 2.6142433899999999 Au
atom 21.5995032199999990 23.0570625299999996 2.6619193100000000 Au
atom 24.4204336200000007 23.0352684500000002 2.6850787899999999 Au
atom 27.2428047400000004 23.0586166500000012 2.6948930199999999 Au
atom 1.8655130499999999 23.0360061199999997 2.6930931100000000 Au
atom 4.6880217499999999 23.0587879099999995 2.6850647400000001 Au
atom 8.9194811499999993 25.5240617199999988 2.6903220600000002 Au
atom 11.7348307599999995 25.5249723400000015 2.6639608600000000 Au
atom 14.5557320000000008 25.5233321900000014 2.6211516800000001 Au
atom 17.3713034499999992 25.5240083300000009 2.6267005999999999 Au
atom 20.1927557799999988 25.5248600299999993 2.6774314200000000 Au
atom 23.0088031000000015 25.5242981399999991 2.7089223900000001 Au
atom 25.8329297199999992 25.5250689500000014 2.7241571900000001 Au
atom 0.4523888300000000 25.5260329500000012 2.7280503399999998 Au
atom 3.2774163100000000 25.5257281800000015 2.7222071400000001 Au
atom 6.0960381600000000 25.5257026200000006 2.7121489400000001 Au
atom 7.5082506300000000 27.9873009300000000 2.6001849199999998 Au
atom 10.3282687099999997 28.0021582400000000 2.6602588699999998 Au
atom 13.1454973000000006 27.9871969500000013 2.5576502200000002 Au
atom 15.9638207800000007 28.0019084300000003 2.6327041100000002 Au
atom 18.7824081800000009 27.9874110099999989 2.5666951199999999 Au
atom 21.6004150499999987 28.0027109199999984 2.6706645400000002 Au
atom 24.4213805000000015 27.9871134400000017 2.6111958899999999 Au
atom 27.2431409500000008 28.0042791599999994 2.6942485999999999 Au
atom 1.8651905799999999 27.9883116100000002 2.6167134500000002 Au
atom 4.6873631600000003 28.0040460399999986 2.6885844799999998 Au
atom 8.9181099699999997 30.4580428800000007 2.6161535200000001 Au
atom 11.7349488300000004 30.4578623899999990 2.6093975800000000 Au
atom 14.5551401600000005 30.4580054999999987 2.5968775300000000 Au
atom 17.3725327800000002 30.4583038700000017 2.5996444099999998 Au
atom 20.1930690000000013 30.4582095099999997 2.6130591900000000 Au
atom 23.0106381300000002 30.4585727499999983 2.6228257699999999 Au
atom 25.8336588099999993 30.4592956100000016 2.6297699500000000 Au
atom 0.4528657100000000 30.4598211100000000 2.6326516700000000 Au
atom 3.2764641600000002 30.4596211100000005 2.6291821299999998 Au
atom 6.0953406100000000 30.4591102599999992 2.6273665099999999 Au
atom 7.5063095200000003 32.9190595399999992 2.5383719000000000 Au
atom 10.3264017900000002 32.9164530199999987 2.6388694099999999 Au
atom 13.1451757199999992 32.9188660399999975 2.5291213899999998 Au
atom 15.9641907700000001 32.9161333500000026 2.6314006800000000 Au
atom 18.7833023700000012 32.9190100799999996 2.5304060200000000 Au
atom 21.6026908400000011 32.9167954500000022 2.6412624700000000 Au
atom 24.4229849200000011 32.9193950700000002 2.5403110700000000 Au
atom 27.2438197600000009 32.9175124499999967 2.6475483899999999 Au
atom 1.8647680000000000 32.9197696900000025 2.5420956800000001 Au
atom 4.6858490599999998 32.9173842100000016 2.6461735200000001 Au
atom 8.9156275600000008 35.3773578300000011 2.6289048699999999 Au
atom 11.7349171900000009 35.3771375299999988 2.6289819400000001 Au
atom 14.5547607800000005 35.3773709600000004 2.6257905300000002 Au
atom 17.3736695800000014 35.3773639500000030 2.6271460100000001 Au
atom 20.1935130200000010 35.3775518500000032 2.6281804200000001 Au
atom 23.0132294900000005 35.3775078099999973 2.6307919499999999 Au
atom 25.8335278200000005 35.3777279999999976 2.6305521100000000 Au
atom 0.4541466100000000 35.3777369000000022 2.6319968000000000 Au
atom 3.2748656399999998 35.3777637600000006 2.6303120999999998 Au
atom 6.0952823599999997 35.3773475500000032 2.6313682200000001 Au
atom 7.5052608300000001 37.8504704599999968 2.6134094200000000 Au
atom 10.3253531200000008 37.8313503199999985 2.6970760199999999 Au
atom 13.1449537700000008 37.8509677899999986 2.6121070400000002 Au
atom 15.9646248199999992 37.8318373600000015 2.6957049400000002 Au
atom 18.7842656800000007 37.8511743600000017 2.6121531899999999 Au
atom 21.6038753600000000 37.8316328499999983 2.6974936299999999 Au
atom 24.4240831400000005 37.8506736000000004 2.6135928900000001 Au
atom 27.2442541700000014 37.8312087700000035 2.6977318700000001 Au
atom 1.8647136499999999 37.8505488999999997 2.6129683799999999 Au
atom 4.6851583799999998 37.8310815899999966 2.6973400299999999 Au
atom 8.9138484400000007 0.8336630200000000 2.7292029800000002 Au
atom 11.7360745600000005 0.8337660200000000 2.7290042500000000 Au
atom 14.5534287700000000 0.8344107200000001 2.7273997300000001 Au
atom 17.3754681300000016 0.8342744000000000 2.7280621699999998 Au
atom 20.1928616500000011 0.8341829400000000 2.7282670699999998 Au
atom 23.0150220200000000 0.8336199300000000 2.7298402199999998 Au
atom 25.8327949699999984 0.8332521400000000 2.7295374200000002 Au
atom 0.4554489700000000 0.8328717700000000 2.7300338800000001 Au
atom 3.2734869500000001 0.8330944900000000 2.7292961800000000 Au
atom 6.0961385500000000 0.8328202300000001 2.7300735000000000 Au
atom 7.5055280700000004 3.3218275600000000 2.7039250699999999 Au
atom 10.3255176599999992 3.2995673900000000 2.7044849499999999 Au
atom 13.1451747999999995 3.3233328900000001 2.6995953899999998 Au
atom 15.9648309899999994 3.3006753500000001 2.7014807799999998 Au
atom 18.7842844800000002 3.3234641800000002 2.6989608899999999 Au
atom 21.6039314100000013 3.2997006299999998 2.7040255499999999 Au
atom 24.4239342899999983 3.3219474099999999 2.7032147800000002 Au
atom 27.2442458599999995 3.2982996099999999 2.7057514899999999 Au
atom 1.8648169200000000 3.3211595599999999 2.7043945200000001 Au
atom 4.6851489700000002 3.2982339299999999 2.7057755000000001 Au
atom 8.9141825000000008 5.7907475699999997 2.7302001200000001 Au
atom 11.7369617000000002 5.7915758000000004 2.7255992199999999 Au
atom 14.5534275399999995 5.7928640600000003 2.7229795700000001 Au
atom 17.3757926000000005 5.7927274300000002 2.7217339699999998 Au
atom 20.1921200399999989 5.7921592500000001 2.7243811500000001 Au
atom 23.0149438699999997 5.7907200000000003 2.7277007800000002 Au
atom 25.8322798899999988 5.7896785199999998 2.7304089700000000 Au
atom 0.4556353300000000 5.7889141400000002 2.7314040300000002 Au
atom 3.2735413300000000 5.7890883000000004 2.7323311499999998 Au
atom 6.0969448399999999 5.7893650900000004 2.7312255099999998 Au
atom 7.5064660400000003 8.2692839399999993 2.6906528900000000 Au
atom 10.3262680200000005 8.2541073600000008 2.6090752500000001 Au
atom 13.1462129999999995 8.2723807300000001 2.6742238500000002 Au
atom 15.9648367199999992 8.2559869999999993 2.5937323000000001 Au
atom 18.7838144000000007 8.2727199700000007 2.6702817500000000 Au
atom 21.6034124100000007 8.2541586099999993 2.6039085800000001 Au
atom 24.4232752300000016 8.2694428400000000 2.6858411599999998 Au
atom 27.2439692399999984 8.2516178100000008 2.6142838400000001 Au
atom 1.8648397900000000 8.2679049899999999 2.6933232199999999 Au
atom 4.6858108999999999 8.2517260399999994 2.6164901999999999 Au
atom 8.9151554300000004 10.7254066199999993 2.6175873799999998 Au
atom 11.7369409699999991 10.7263839599999997 2.6010770399999998 Au
atom 14.5535320699999993 10.7292015900000006 2.5901855500000002 Au
atom 17.3756544599999998 10.7289099399999994 2.5849587600000001 Au
atom 20.1923941199999994 10.7267944199999992 2.5942027699999999 Au
atom 23.0142122700000016 10.7254033900000003 2.6080354500000000 Au
atom 25.8323138499999985 10.7236379300000007 2.6169842299999999 Au
atom 0.4553763600000000 10.7231300800000007 2.6230011000000002 Au
atom 3.2742525200000001 10.7232525400000007 2.6254316000000002 Au
atom 6.0971926800000000 10.7241231100000007 2.6218319499999998 Au
atom 7.4987676800000003 13.1641063500000008 5.6996757999999996 Cl
atom 7.5329647599999996 15.9861705599999997 8.5642245599999995 Cl
atom 7.5015872400000001 13.1719529000000009 8.3423905800000000 Na
atom 7.4964459799999998 15.9905662199999998 5.7534305200000002 Na
atom 7.4864803400000000 18.8209755100000002 5.7096072700000002 Cl
atom 7.5265079000000004 21.6458306600000014 8.5735076100000001 Cl
atom 7.5108524499999998 18.8035338400000001 8.3382902800000007 Na
atom 7.4933578299999999 21.6351614699999999 5.7831199199999999 Na
atom 7.4959546599999998 24.4441825600000016 5.7477257300000000 Cl
atom 7.5118854600000002 27.2453448700000003 8.5907147800000008 Cl
atom 7.5049906599999998 24.4351247899999997 8.3773808699999996 Na
atom 7.4905745300000000 27.2392562100000006 5.8194926699999998 Na
atom 7.4973943600000004 30.0616775999999994 5.7158039900000004 Cl
atom 7.5019758799999998 32.8909929300000030 8.5600890799999991 Cl
atom 7.5000043800000000 30.0732862800000014 8.3561967500000005 Na
atom 7.4944491500000003 32.9006979999999984 5.8158853600000002 Na
atom 7.4965585199999998 35.7330235299999970 5.7193007299999996 Cl
atom 7.4974398000000004 38.5390555600000013 8.5869841200000003 Cl
atom 7.4970875399999999 35.7229835300000005 8.3620109100000004 Na
atom 7.4956975600000000 38.5707909500000028 5.8364830999999997 Na
atom 7.4965489099999996 1.8907124300000000 5.7710651100000003 Cl
atom 7.4994906900000000 4.7143675800000002 8.5989667799999996 Cl
atom 7.4968831900000001 1.8899796000000000 8.4092832699999995 Na
atom 7.4960776999999998 4.7032318399999999 5.8384126800000002 Na
atom 7.4977330999999996 7.5120023700000003 5.7507962299999997 Cl
atom 7.5071172800000001 10.3644085199999996 8.5539850000000008 Cl
atom 7.4988110099999998 7.5340169499999998 8.3916833799999999 Na
atom 7.4959312200000001 10.3252614800000000 5.7850989300000002 Na
atom 10.3077104199999994 13.1618374100000004 5.7924313800000000 Na
atom 13.1211585300000007 13.1643214900000007 5.6592941799999998 Cl
atom 10.3264115899999993 16.0186884399999983 8.3291883799999997 Na
atom 13.1205704099999991 15.9936830099999998 8.5120235500000003 Cl
atom 13.1451774500000003 13.1745912199999999 8.2947082900000009 Na
atom 10.3347947999999992 13.1931229099999996 8.5794111100000006 Cl
atom 13.1281612499999998 15.9997450400000005 5.7122583200000001 Na
atom 10.3125457300000001 15.9828100099999997 5.6827443700000000 Cl
atom 10.3213780600000007 18.8328248599999988 5.7166773900000001 Na
atom 13.1450221000000003 18.8104144499999997 5.6947138500000003 Cl
atom 10.3334129800000003 21.6052707300000009 8.3757829800000003 Na
atom 13.1331252900000006 21.5871791000000002 8.5765359399999994 Cl
atom 13.1478492700000000 18.7970288200000013 8.3503268300000002 Na
atom 10.3688071199999996 18.8087455699999992 8.4132811699999994 Cl
atom 13.1249782499999998 21.6063840200000001 5.7323362600000003 Na
atom 10.3146391499999996 21.6428217499999995 5.7332559300000003 Cl
atom 10.2966349299999997 24.4397395899999985 5.7839328700000001 Na
atom 13.0956445400000003 24.4286269099999984 5.6705336199999996 Cl
atom 10.3266582099999997 27.2477214299999986 8.3678665900000002 Na
atom 13.1642565200000004 27.2027212600000006 8.5939775100000002 Cl
atom 13.1509797200000005 24.4111089200000002 8.2846043999999992 Na
atom 10.3467420699999995 24.4149340799999983 8.6224497400000004 Cl
atom 13.1240502699999997 27.2389039599999982 5.7675251999999997 Na
atom 10.3163922600000006 27.2373025099999992 5.7389006299999998 Cl
atom 10.3122884300000006 30.0635928700000008 5.7784167399999999 Na
atom 13.1307624599999997 30.0550362500000006 5.7010185399999997 Cl
atom 10.3189058300000003 32.8938359699999978 8.3527197399999995 Na
atom 13.1392047699999992 32.8826164999999975 8.5526818099999993 Cl
atom 13.1421602100000001 30.0605903999999988 8.3360371400000002 Na
atom 10.3310365900000001 30.0602638599999992 8.5485669200000007 Cl
atom 13.1330567299999998 32.9000571799999975 5.8071620499999996 Na
atom 10.3152901600000000 32.8943113199999999 5.7031370399999997 Cl
atom 10.3156491500000005 35.7363964299999992 5.7932565699999996 Na
atom 13.1356719000000002 35.7309807099999972 5.7170449000000003 Cl
atom 10.3165254300000004 38.5340187400000005 8.3921597400000003 Na
atom 13.1365144699999998 38.5365308399999975 8.5861771699999991 Cl
atom 13.1368126099999998 35.7189596199999997 8.3591616099999992 Na
atom 10.3186199100000007 35.7087760300000028 8.5507116199999995 Cl
atom 13.1352437000000002 38.5686026600000034 5.8353814000000002 Na
atom 10.3158118200000004 38.5553664400000002 5.7468011900000002 Cl
atom 10.3155422600000009 1.8830073899999999 5.8372891600000001 Na
atom 13.1355183199999992 1.8879212999999999 5.7692746699999997 Cl
atom 10.3178382699999993 4.6980483800000004 8.4063940299999995 Na
atom 13.1382251700000001 4.7141298500000000 8.5945329600000004 Cl
atom 13.1367281699999996 1.8881225100000001 8.4072071299999998 Na
atom 10.3176986700000004 1.8780334999999999 8.5966968099999992 Cl
atom 13.1338167099999996 4.6983021100000002 5.8325963600000001 Na
atom 10.3155982799999997 4.6978007799999997 5.7679207999999997 Cl
atom 10.3132966699999997 7.4922536500000003 5.8277350700000001 Na
atom 13.1322624300000008 7.5070948000000000 5.7402046999999996 Cl
atom 10.3225845899999999 10.3481279300000004 8.3473068399999999 Na
atom 13.1450729200000005 10.3722867799999996 8.5419564999999995 Cl
atom 13.1398557300000007 7.5333968999999996 8.3776968800000002 Na
atom 10.3230865600000001 7.5372655699999997 8.5859374299999995 Cl
atom 13.1295791899999994 10.3170847099999996 5.7573723699999997 Na
atom 10.3161829699999998 10.3356864700000006 5.7105809799999996 Cl
atom 15.9496124199999993 13.1439760000000003 5.6972701600000004 Na
atom 18.7817384300000008 13.1547412200000000 5.6360341099999998 Cl
atom 15.9825514399999999 15.9965121400000001 8.2730888700000005 Na
atom 18.7860539600000003 15.9956498200000006 8.4194710100000005 Cl
atom 18.7606371299999992 13.1840587300000003 8.2761524099999999 Na
atom 15.9523895000000007 13.1274314000000007 8.4020928200000000 Cl
atom 18.7876602900000016 16.0028044899999990 5.6764570299999999 Na
atom 15.9462525300000006 15.9903891300000005 5.6480725500000002 Cl
atom 15.9529662800000001 18.8306342600000001 5.7094401599999998 Na
atom 18.7708626900000013 18.8190586099999990 5.6840856500000001 Cl
atom 15.9526996899999993 21.6391440899999985 8.3118266300000005 Na
atom 18.7465576300000016 21.6196144299999986 8.4889554100000009 Cl
atom 18.7543489000000001 18.8061719899999993 8.3372953699999997 Na
atom 15.9451306099999996 18.8245826899999997 8.4672254099999993 Cl
atom 18.7804097900000002 21.6196609100000003 5.7252529299999999 Na
atom 15.9390060699999996 21.6086939200000003 5.6695186700000004 Cl
atom 15.9551257199999998 24.4391522700000010 5.6240258399999998 Na
atom 18.8048993700000011 24.4406340299999982 5.6814381599999999 Cl
atom 15.9505561100000008 27.2222155999999984 8.2964702799999994 Na
atom 18.7341057100000015 27.2133409200000003 8.6016937599999999 Cl
atom 18.7284412799999984 24.4096264199999986 8.3215680100000000 Na
atom 15.9542865700000007 24.4279980200000004 8.2386003399999996 Cl
atom 18.7829820900000009 27.2333756200000003 5.7825607500000000 Na
atom 15.9498981900000008 27.2710564399999988 5.6609897100000000 Cl
atom 15.9551889599999992 30.0719394800000011 5.7574807600000000 Na
atom 18.7761257499999985 30.0534952400000002 5.7030450500000001 Cl
atom 15.9543060400000005 32.8886850900000027 8.3464068400000002 Na
atom 18.7679459000000008 32.8825583499999965 8.5529040100000007 Cl
atom 18.7650840499999987 30.0603873899999989 8.3399504600000007 Na
atom 15.9501519900000002 30.0467695600000013 8.5323345100000001 Cl
atom 18.7767507599999988 32.8980219299999987 5.8085368199999996 Na
atom 15.9544207199999999 32.8941596499999989 5.6969203100000003 Cl
atom 15.9559319399999993 35.7348984099999996 5.7910396100000003 Na
atom 18.7754416100000014 35.7299895000000021 5.7171004099999996 Cl
atom 15.9556549200000006 38.5316099200000011 8.3910293599999992 Na
atom 18.7744099700000007 38.5357581100000033 8.5860628000000005 Cl
atom 18.7741182299999991 35.7178730999999985 8.3594696899999992 Na
atom 15.9548070800000001 35.7057415900000024 8.5484888600000009 Cl
atom 18.7760680999999998 38.5675541499999994 5.8356611799999998 Na