#===============================================================================
# Created using the Atomic Simulation Environment (ASE)

# Fri Sep 26 23:47:20 2025

#=======================================================
lattice_vector 28.1999999999999993 0.0000000000000000 0.0000000000000000 
lattice_vector 0.0000000000000000 39.4799999999999969 0.0000000000000000 
lattice_vector 0.0000000000000000 0.0000000000000000 32.3296083400000001 
atom 7.5192723900000003 14.8241728399999992 0.0373354200000000 Au
atom 10.3402260600000009 14.8259518299999993 32.3155785499999979 Au
atom 13.1593568300000001 14.8206719099999997 0.0247045000000000 Au
atom 15.9804528000000001 14.8238733000000007 32.2813890999999984 Au
atom 18.8055547999999995 14.8228379900000000 -0.0037751700000000 Au
atom 21.6301361800000009 14.8296932800000008 32.2876778199999990 Au
atom 24.4490740399999993 14.8286902000000005 0.0201060700000000 Au
atom 27.2679380299999998 14.8368938600000000 32.2988750299999978 Au
atom 1.8850448000000000 14.8319661000000007 0.0259720200000000 Au
atom 4.7025215300000003 14.8329246599999998 32.3065887799999985 Au
atom 8.9273537500000000 17.2959114900000017 -0.0168104900000000 Au
atom 11.7553675200000001 17.2920258999999987 -0.0305937300000000 Au
atom 14.5693721000000007 17.2919561900000005 -0.0461217100000000 Au
atom 17.3993804200000000 17.2932870799999989 -0.0472438700000000 Au
atom 20.2180236999999998 17.2994776200000011 -0.0188056600000000 Au
atom 23.0433779600000008 17.3018904199999994 0.0070913000000000 Au
atom 25.8559010600000008 17.3072833999999993 0.0214113900000000 Au
atom 0.4771374300000000 17.3068646400000006 0.0256417000000000 Au
atom 3.2867918000000000 17.3045082999999984 -0.0051528700000000 Au
atom 6.1126035800000000 17.3001451899999985 -0.0020856900000000 Au
atom 7.5182564799999998 19.7724692100000006 0.0433076000000000 Au
atom 10.3419563100000005 19.7739445399999987 -0.0388026800000000 Au
atom 13.1623434699999997 19.7658724399999990 -0.0058043700000000 Au
atom 15.9866333500000000 19.7704407599999996 -0.0541252400000000 Au
atom 18.8087895100000004 19.7679167199999988 0.0280314600000000 Au
atom 21.6333345000000001 19.7768171799999983 0.0177637700000000 Au
atom 24.4475649299999986 19.7751766999999994 0.1131523900000000 Au
atom 27.2637591800000010 19.7844318299999991 0.0618523400000000 Au
atom 1.8835863399999999 19.7800814699999989 0.0985478300000000 Au
atom 4.6975450600000004 19.7829872800000004 0.0068497400000000 Au
atom 8.9299287199999995 22.2389613399999995 0.0076977900000000 Au
atom 11.7538441799999998 22.2366186299999988 -0.0136654700000000 Au
atom 14.5723449100000000 22.2327914200000016 -0.0252409700000000 Au
atom 17.4018532400000012 22.2342954199999987 0.0005106400000000 Au
atom 20.2205548800000017 22.2380927300000018 0.0473184000000000 Au
atom 23.0399770100000012 22.2382886800000001 0.1085938000000000 Au
atom 25.8533468999999982 22.2442734800000004 0.1239643400000000 Au
atom 0.4717026800000000 22.2456101000000004 0.1161060600000000 Au
atom 3.2890117200000000 22.2467779499999985 0.0844444300000000 Au
atom 6.1089385900000002 22.2463436500000000 0.0451161200000000 Au
atom 7.5210475900000002 24.7170169800000004 0.0681879100000000 Au
atom 10.3440361700000008 24.7129380000000012 0.0336880100000000 Au
atom 13.1633576800000007 24.7113072100000011 0.0282816600000000 Au
atom 15.9854202399999998 24.7090566199999984 0.0246907200000000 Au
atom 18.8085096400000005 24.7118034199999990 0.0727696500000000 Au
atom 21.6267460299999996 24.7085327300000017 0.1183061600000000 Au
atom 24.4451621099999983 24.7120080199999990 0.1547116800000000 Au
atom 27.2625728699999996 24.7125493399999989 0.1481501900000000 Au
atom 1.8821990600000000 24.7201635599999996 0.1355090100000000 Au
atom 4.7018924300000000 24.7150261799999988 0.0964048600000000 Au
atom 8.9368296899999997 27.1778382600000015 0.0560627900000000 Au
atom 11.7530238199999992 27.1759525999999987 0.0412805700000000 Au
atom 14.5770154699999992 27.1735337900000005 0.0410137800000000 Au
atom 17.3930474699999991 27.1741003200000009 0.0573028800000000 Au
atom 20.2152426399999996 27.1688276500000008 0.0781827600000000 Au
atom 23.0321721599999982 27.1707598499999996 0.0968159000000000 Au
atom 25.8512422499999985 27.1727951700000006 0.1073672300000000 Au
atom 0.4719500100000000 27.1752931999999987 0.1003165100000000 Au
atom 3.2929464199999998 27.1782632799999995 0.0889068500000000 Au
atom 6.1137993599999998 27.1777560899999990 0.0681204000000000 Au
atom 7.5256659700000004 29.6523067800000000 0.0453691400000000 Au
atom 10.3447389699999999 29.6422646500000013 0.0841765700000000 Au
atom 13.1634161200000008 29.6501584099999995 0.0348811100000000 Au
atom 15.9817349400000008 29.6399090500000000 0.0776332700000000 Au
atom 18.8016081399999990 29.6446633400000010 0.0395168900000000 Au
atom 21.6220465600000011 29.6372255799999991 0.0705878900000000 Au
atom 24.4413636399999987 29.6437752600000017 0.0437571000000000 Au
atom 27.2625689999999992 29.6389481799999999 0.0728353800000000 Au
atom 1.8847432000000000 29.6485964799999984 0.0433200200000000 Au
atom 4.7070701799999997 29.6424116600000005 0.0803994400000000 Au
atom 8.9410367799999992 32.1156104000000013 0.0798815700000000 Au
atom 11.7508253699999994 32.1160652599999992 0.0770302400000000 Au
atom 14.5751521799999999 32.1138364199999984 0.0680198100000000 Au
atom 17.3858430599999991 32.1117682599999981 0.0479437700000000 Au
atom 20.2120412899999984 32.1097862100000029 0.0362522200000000 Au
atom 23.0261253600000018 32.1074874399999999 0.0158032900000000 Au
atom 25.8533016499999988 32.1081731000000019 0.0128448700000000 Au
atom 0.4720051600000000 32.1112007500000018 0.0155881300000000 Au
atom 3.3002520500000001 32.1124805400000000 0.0367781700000000 Au
atom 6.1157001299999996 32.1154835600000013 0.0672381600000000 Au
atom 7.5291107300000002 34.5909406500000003 32.4090867399999993 Au
atom 10.3435495000000000 34.5805660099999983 0.1635588600000000 Au
atom 13.1632233900000006 34.5912504400000032 32.4095264299999997 Au
atom 15.9796302400000005 34.5821595999999971 0.1236999400000000 Au
atom 18.7973302199999992 34.5875939900000020 32.3669475100000028 Au
atom 21.6180223900000001 34.5788029499999965 0.0716911700000000 Au
atom 24.4380824700000012 34.5879529199999993 32.3226615000000024 Au
atom 27.2623454800000005 34.5802793800000003 0.0435115900000000 Au
atom 1.8879794800000000 34.5870518199999992 32.3400985800000029 Au
atom 4.7083993499999997 34.5804502299999967 0.1128220400000000 Au
atom 8.9368121299999999 37.0509155600000000 0.1656015800000000 Au
atom 11.7498364500000001 37.0533203700000016 0.1616143300000000 Au
atom 14.5726331499999997 37.0556805299999965 0.1450514300000000 Au
atom 17.3844270600000002 37.0560985600000024 0.1191790200000000 Au
atom 20.2081060699999995 37.0543661199999974 0.0969268200000000 Au
atom 23.0261008999999994 37.0512093299999989 0.0657320900000000 Au
atom 25.8552050899999983 37.0526662299999998 0.0510312500000000 Au
atom 0.4730495500000000 37.0537173999999965 0.0641489200000000 Au
atom 3.3011484499999999 37.0498848499999980 0.1035667100000000 Au
atom 6.1160765300000000 37.0521845700000014 0.1412199600000000 Au
atom 7.5276249599999998 0.0400365600000000 0.1853244300000000 Au
atom 10.3443622200000007 0.0378466400000000 0.2466408600000000 Au
atom 13.1614411100000002 0.0436548600000000 0.1856986600000000 Au
atom 15.9775888100000003 0.0384288100000000 0.2183880200000000 Au
atom 18.7944951899999992 0.0440605500000000 0.1407568500000000 Au
atom 21.6173834900000017 0.0405885100000000 0.1654978900000000 Au
atom 24.4389600899999984 0.0447724400000000 0.0886136700000000 Au
atom 27.2640336300000001 0.0371308600000000 0.1409840100000000 Au
atom 1.8890798900000001 0.0422590900000000 0.1177034800000000 Au
atom 4.7066651700000000 0.0355520600000000 0.2147589500000000 Au
atom 8.9380098700000001 2.4963491100000001 0.2365692500000000 Au
atom 11.7486964199999999 2.5016608699999998 0.2404836100000000 Au
atom 14.5697479500000000 2.5046002999999999 0.2286233400000000 Au
atom 17.3857665700000013 2.5034819499999998 0.2055061000000000 Au
atom 20.2089417900000008 2.5042656700000001 0.1736051600000000 Au
atom 23.0245258300000017 2.5032311599999999 0.1420067100000000 Au
atom 25.8549132899999989 2.5026890200000000 0.1324202300000000 Au
atom 0.4756121300000000 2.5000702100000001 0.1543374700000000 Au
atom 3.3001524999999998 2.4979176399999998 0.1935272800000000 Au
atom 6.1134872800000002 2.4963324600000001 0.2171272900000000 Au
atom 7.5251792999999996 4.9640843200000004 0.2381523100000000 Au
atom 10.3410115299999994 4.9636898499999997 0.2618177300000000 Au
atom 13.1597341100000005 4.9647854899999997 0.2530712200000000 Au
atom 15.9773248999999993 4.9677603499999998 0.2480751400000000 Au
atom 18.7968565599999984 4.9683643899999996 0.2083626500000000 Au
atom 21.6199002100000008 4.9684227700000001 0.1828815100000000 Au
atom 24.4423280799999993 4.9687705700000002 0.1491409700000000 Au
atom 27.2674704800000001 4.9685838300000000 0.1757757800000000 Au
atom 1.8869896300000000 4.9634887599999997 0.1941447900000000 Au
atom 4.7051566700000000 4.9636189799999997 0.2284041900000000 Au
atom 8.9298168499999999 7.4211078900000000 0.1955430600000000 Au
atom 11.7530349899999997 7.4203583100000001 0.2010448400000000 Au
atom 14.5664872499999998 7.4229795699999999 0.1924504700000000 Au
atom 17.3888227200000003 7.4249578400000003 0.1748038500000000 Au
atom 20.2077010500000007 7.4240778699999996 0.1429900700000000 Au
atom 23.0343657800000017 7.4262289199999998 0.1235078600000000 Au
atom 25.8534368199999989 7.4251964399999997 0.1255380600000000 Au
atom 0.4786294100000000 7.4230788199999997 0.1436664500000000 Au
atom 3.2945842100000000 7.4214759900000002 0.1649675700000000 Au
atom 6.1164794499999999 7.4200008500000001 0.1802639400000000 Au
atom 7.5214971000000004 9.8843234800000008 0.1417515300000000 Au
atom 10.3403518800000001 9.8894377700000007 0.1189469000000000 Au
atom 13.1577760900000005 9.8826574100000002 0.1437306400000000 Au
atom 15.9789905799999996 9.8889606299999997 0.0985536100000000 Au
atom 18.8022229500000009 9.8851914200000000 0.1126276300000000 Au
atom 21.6215705599999986 9.8930975399999994 0.0658206100000000 Au
atom 24.4472691100000006 9.8894530599999992 0.0897873500000000 Au
atom 27.2669381000000008 9.8953811700000003 0.0681865600000000 Au
atom 1.8871646700000000 9.8858900900000002 0.1138775700000000 Au
atom 4.7059942000000001 9.8920299899999993 0.0954558400000000 Au
atom 8.9284009500000003 12.3516098599999999 0.0565746600000000 Au
atom 11.7516534700000008 12.3503945700000006 0.0560342200000000 Au
atom 14.5676777699999995 12.3512267500000004 0.0304168600000000 Au
atom 17.3931724699999997 12.3508819200000008 0.0211563300000000 Au
atom 20.2125850800000002 12.3522046099999994 0.0164339700000000 Au
atom 23.0395936699999986 12.3571091600000003 0.0126179400000000 Au
atom 25.8545571800000005 12.3568946900000007 0.0096398500000000 Au
atom 0.4773666500000000 12.3560472800000003 0.0210849300000000 Au
atom 3.2946412299999999 12.3549490500000001 0.0298056100000000 Au
atom 6.1148969800000001 12.3515717600000006 0.0420118900000000 Au
atom 7.5205538799999996 13.2140197799999992 2.6868808400000002 Au
atom 10.3438639000000006 13.2082516299999995 2.5955256699999998 Au
atom 13.1644665199999995 13.2135871500000004 2.6797930600000002 Au
atom 15.9841776299999996 13.2053449799999996 2.5594046600000002 Au
atom 18.8034457199999991 13.2083008799999995 2.6506918800000001 Au
atom 21.6268696899999995 13.2015006600000007 2.5511371600000001 Au
atom 24.4465484999999987 13.2058680699999993 2.6502473499999999 Au
atom 27.2644651099999997 13.2031865499999999 2.5570352600000001 Au
atom 1.8835445700000000 13.2112330900000003 2.6637006099999998 Au
atom 4.7041685400000004 13.2069636100000007 2.5728564800000000 Au
atom 8.9369182299999999 15.6693001699999996 2.6132398700000001 Au
atom 11.7563867299999991 15.6683309099999999 2.6195916200000000 Au
atom 14.5760661999999996 15.6683498700000001 2.5965329300000000 Au
atom 17.3943519799999997 15.6635220900000007 2.5789954900000001 Au
atom 20.2175982500000018 15.6592891400000003 2.5768061599999998 Au
atom 23.0386659999999992 15.6593738600000005 2.6145484899999998 Au
atom 25.8572947599999985 15.6619098900000004 2.6143928100000000 Au
atom 0.4753702400000000 15.6643754699999995 2.6231784399999998 Au
atom 3.2953639199999998 15.6682889299999992 2.6085369500000000 Au
atom 6.1156766700000000 15.6688053800000002 2.6218589699999999 Au
atom 7.5248319199999996 18.1191687200000011 2.6502248499999999 Au
atom 10.3483948500000000 18.1304733499999990 2.5228154100000002 Au
atom 13.1666029000000009 18.1172273399999995 2.6264528700000001 Au
atom 15.9843119399999996 18.1248758400000014 2.5042981300000000 Au
atom 18.8027702099999985 18.1105203299999999 2.6284955900000000 Au
atom 21.6247916300000007 18.1235023599999998 2.5621716000000001 Au
atom 24.4453015799999989 18.1092118000000006 2.6913716299999999 Au
atom 27.2629962600000013 18.1295513700000015 2.6013102500000000 Au
atom 1.8861809899999999 18.1152624200000005 2.6853206200000002 Au
atom 4.7027491399999999 18.1343313299999984 2.5495776100000000 Au
atom 8.9440177799999994 20.5897109600000014 2.6218696900000000 Au
atom 11.7596412600000004 20.5842856300000001 2.6173640499999999 Au
atom 14.5753627500000000 20.5835126099999997 2.5949951300000000 Au
atom 17.3948183800000002 20.5789672699999997 2.6147945799999999 Au
atom 20.2152044199999992 20.5824382300000011 2.6469433699999998 Au
atom 23.0340297400000011 20.5816042199999991 2.7246596200000002 Au
atom 25.8565875699999985 20.5861944500000007 2.7316116799999999 Au
atom 0.4766416500000000 20.5897997900000007 2.7264736900000002 Au
atom 3.2982111299999999 20.5925656500000009 2.6968151499999999 Au
atom 6.1173773400000000 20.5920943700000016 2.6588347699999999 Au
atom 7.5309078300000003 23.0498901499999995 2.6475726000000002 Au
atom 10.3490884500000000 23.0655448300000003 2.5906332600000002 Au
atom 13.1660574599999993 23.0390844000000001 2.6049945100000000 Au
atom 15.9823174199999993 23.0610790100000003 2.5726213000000002 Au
atom 18.7996821899999986 23.0389347999999998 2.6424903099999999 Au
atom 21.6175835300000010 23.0650168700000009 2.6879517000000002 Au
atom 24.4399308799999986 23.0453452799999994 2.7461324999999999 Au
atom 27.2637265299999996 23.0713378300000009 2.7206927400000001 Au
atom 1.8876702100000000 23.0504688999999985 2.7248290300000000 Au
atom 4.7106035200000003 23.0732015900000000 2.6626513500000000 Au
atom 8.9443153399999993 25.5311634000000005 2.6872293100000002 Au
atom 11.7571510700000008 25.5260471799999991 2.6590645999999998 Au
atom 14.5794035300000004 25.5285500399999989 2.6598891600000001 Au
atom 17.3909722799999997 25.5279431899999985 2.6788066599999998 Au
atom 20.2127669800000014 25.5320021100000005 2.7296422800000002 Au
atom 23.0273918299999991 25.5319350199999988 2.7618370099999998 Au
atom 25.8541408699999984 25.5379688099999989 2.7770083400000001 Au
atom 0.4763183600000000 25.5388876600000003 2.7686473000000000 Au
atom 3.3003274800000000 25.5396630800000004 2.7485438800000002 Au
atom 6.1190316500000002 25.5376397799999992 2.7188452900000000 Au
atom 7.5301618799999996 27.9967727000000011 2.6262577899999999 Au
atom 10.3489235100000005 28.0087828600000002 2.6915745200000001 Au
atom 13.1676916300000002 27.9901668800000003 2.6137811300000000 Au
atom 15.9816858600000007 28.0068055099999995 2.6910209900000002 Au
atom 18.8011642700000010 27.9926372900000011 2.6409913000000000 Au
atom 21.6191622499999987 28.0156181099999984 2.7100974500000001 Au
atom 24.4386295199999992 27.9996976199999992 2.6654624000000000 Au
atom 27.2630056399999994 28.0191060800000002 2.7197127700000001 Au
atom 1.8849960600000000 28.0013267699999986 2.6569606700000001 Au
atom 4.7066898699999999 28.0166613899999994 2.7103382100000002 Au
atom 8.9405866100000004 30.4673364299999996 2.6874739900000000 Au
atom 11.7576493400000004 30.4662961000000010 2.6803243000000001 Au
atom 14.5772414700000006 30.4662375999999995 2.6819538399999998 Au
atom 17.3943107499999989 30.4683197600000000 2.6720076300000000 Au
atom 20.2143473600000014 30.4712445299999999 2.6703118400000001 Au
atom 23.0299820599999983 30.4729775200000006 2.6607928500000000 Au
atom 25.8515091000000012 30.4772953999999991 2.6630310800000001 Au
atom 0.4727916500000000 30.4773139399999984 2.6601235299999999 Au
atom 3.2970669400000001 30.4765013799999984 2.6748165699999999 Au
atom 6.1174032299999999 30.4705174599999999 2.6795347000000000 Au
atom 7.5261334900000003 32.9308722800000027 2.6303870699999998 Au
atom 10.3471047200000008 32.9289188500000023 2.7546332100000002 Au
atom 13.1663871100000005 32.9281581500000016 2.6297974700000002 Au
atom 15.9866900300000001 32.9292734300000021 2.7248184800000002 Au
atom 18.8047259400000009 32.9310972999999976 2.5956328000000002 Au
atom 21.6227423200000004 32.9347236999999993 2.6793939800000000 Au
atom 24.4404592200000010 32.9341613400000028 2.5611324000000000 Au
atom 27.2598011599999985 32.9391273299999980 2.6600738399999999 Au
atom 1.8826840300000001 32.9338072199999985 2.5742842499999998 Au
atom 4.7028427900000001 32.9330400400000016 2.7151912500000002 Au
atom 8.9358311799999992 35.3893817499999983 2.7587822900000001 Au
atom 11.7575117700000007 35.3903745900000004 2.7551707599999999 Au
atom 14.5771878099999999 35.3922514799999988 2.7341817499999999 Au
atom 17.3957822799999988 35.3923975800000008 2.7113626100000001 Au
atom 20.2145165899999988 35.3924786800000035 2.6819017700000001 Au
atom 23.0331788300000007 35.3933591199999995 2.6571384800000000 Au
atom 25.8520329900000014 35.3943182200000024 2.6438609700000000 Au
atom 0.4705747300000000 35.3945331999999979 2.6467387100000002 Au
atom 3.2912243299999999 35.3923360200000019 2.6978694299999999 Au
atom 6.1155442700000000 35.3894336999999979 2.7231225399999999 Au
atom 7.5231830600000000 37.8635835600000021 2.7295312100000002 Au
atom 10.3418608899999995 37.8462510900000026 2.8372930799999998 Au
atom 13.1677650800000006 37.8661370800000014 2.7292994799999999 Au
atom 15.9873288599999999 37.8453629799999973 2.8034755499999999 Au
atom 18.8040259600000006 37.8661795699999999 2.6803757300000002 Au
atom 21.6266041400000013 37.8493467099999990 2.7522706499999998 Au
atom 24.4430964599999996 37.8672836900000007 2.6276716300000000 Au
atom 27.2605283299999996 37.8470246600000024 2.7248976800000002 Au
atom 1.8796615699999999 37.8622003600000028 2.6550879100000002 Au
atom 4.6982815300000000 37.8451630499999965 2.7990548099999999 Au
atom 8.9314978099999998 0.8445273000000000 2.8554072900000000 Au
atom 11.7556975200000000 0.8467224500000000 2.8559439499999999 Au
atom 14.5745648100000000 0.8464656500000000 2.8417487100000001 Au
atom 17.3969542600000011 0.8473807400000000 2.8209900499999998 Au
atom 20.2151055200000016 0.8481259600000000 2.7854663000000000 Au
atom 23.0346202399999989 0.8468566100000000 2.7579739700000001 Au
atom 25.8515827899999984 0.8449834600000000 2.7501762699999999 Au
atom 0.4722516900000000 0.8447253100000000 2.7621962600000001 Au
atom 3.2886536400000002 0.8427697100000000 2.8109375800000000 Au
atom 6.1119192800000004 0.8445377900000000 2.8326283399999999 Au
atom 7.5189771199999997 3.3314417900000000 2.8202790499999999 Au
atom 10.3422075400000004 3.3105305899999999 2.8612231900000000 Au
atom 13.1632792199999997 3.3371343100000002 2.8285974600000001 Au
atom 15.9843490100000007 3.3132065900000001 2.8418619800000000 Au
atom 18.8078995599999992 3.3376823799999999 2.7843370099999998 Au
atom 21.6270081999999988 3.3084251999999998 2.7747443700000001 Au
atom 24.4446498800000001 3.3341324900000000 2.7237837599999999 Au
atom 27.2607650600000007 3.3100602000000001 2.7648806399999999 Au
atom 1.8787132700000000 3.3303983800000001 2.7670954399999999 Au
atom 4.6974730800000000 3.3089175100000001 2.8263905399999998 Au
atom 8.9288062000000004 5.8038080499999998 2.8715398900000002 Au
atom 11.7525432999999992 5.8066866299999997 2.8789316100000000 Au
atom 14.5747472699999996 5.8050711599999998 2.8713995699999999 Au
atom 17.3961714600000015 5.8054004499999996 2.8504251300000001 Au
atom 20.2170005900000014 5.8044704100000004 2.8168219600000000 Au
atom 23.0386396500000004 5.8030628599999998 2.7876744599999999 Au
atom 25.8530908199999985 5.8000809699999998 2.7851385500000001 Au
atom 0.4718919300000000 5.8012498499999996 2.8075658699999999 Au
atom 3.2901502100000002 5.7998956000000002 2.8331336199999999 Au
atom 6.1106545299999997 5.8031773600000003 2.8560775100000000 Au
atom 7.5175487900000002 8.2904892500000003 2.7967064399999999 Au
atom 10.3418678499999999 8.2720569200000007 2.7546642700000001 Au
atom 13.1618637799999991 8.2930076800000005 2.8040673500000000 Au
atom 15.9856784600000008 8.2722094399999992 2.7390630499999999 Au
atom 18.8080981899999991 8.2901530399999999 2.7677130600000002 Au
atom 21.6247876400000010 8.2697845700000006 2.6919666300000000 Au
atom 24.4452993200000002 8.2886168500000004 2.7343783799999999 Au
atom 27.2625999300000004 8.2658569800000006 2.6923975800000002 Au
atom 1.8794602499999999 8.2873538100000008 2.7636420600000000 Au
atom 4.7003675100000004 8.2693712799999997 2.7303324899999999 Au
atom 8.9305785499999999 10.7500444599999998 2.7238796600000001 Au
atom 11.7528660200000008 10.7500772599999994 2.7287496500000001 Au
atom 14.5725650499999997 10.7494027200000009 2.7135300800000000 Au
atom 17.3970093599999984 10.7494532700000001 2.6995610200000000 Au
atom 20.2159830000000014 10.7452235900000002 2.6869571900000002 Au
atom 23.0388774299999994 10.7449315500000004 2.6796562100000001 Au
atom 25.8563000699999996 10.7454908899999992 2.6728007100000002 Au
atom 0.4751206200000000 10.7485763799999994 2.6906130699999999 Au
atom 3.2937805500000001 10.7468708700000004 2.6992735300000001 Au
atom 6.1114493899999998 10.7499509799999995 2.7215371199999998 Au
atom 7.5907710899999996 12.9737717099999994 5.7595580599999998 Cl
atom 7.5723003499999999 15.8351594200000001 8.5760733400000007 Cl
atom 7.5732819999999998 13.0154919299999996 8.4050102800000008 Na
atom 7.5985794400000000 15.8038707699999996 5.7872306299999998 Na
atom 7.6039860499999996 18.6198102399999996 5.6557259799999997 Cl
atom 7.6328635100000000 21.4535270400000009 8.3940070299999991 Cl
atom 7.6259902799999999 18.6650116699999984 8.3333996999999993 Na
atom 7.6232726800000004 21.4663521599999996 5.7212909300000003 Na
atom 7.5691404999999996 24.3020340799999985 5.7104677700000002 Cl
atom 7.5758602499999999 27.0831436100000005 8.5934811900000003 Cl
atom 7.6396544799999999 24.2445226900000002 8.3620878800000007 Na
atom 7.5753152100000003 27.0838865200000001 5.8092714799999996 Na
atom 7.5659228399999998 29.9052025099999987 5.7544000799999999 Cl
atom 7.5570749499999996 32.6996430100000026 8.6404182699999996 Cl
atom 7.5648762200000004 29.8843430699999999 8.3955470299999995 Na
atom 7.5668046200000001 32.7351335399999996 5.8980961799999996 Na
atom 7.5599478199999997 35.5627163199999998 5.8362094100000004 Cl
atom 7.5371425099999998 38.3496204100000000 8.7265703400000003 Cl
atom 7.5415676999999999 35.5304838799999985 8.4796503300000001 Na
atom 7.5583647699999998 38.3951769399999989 5.9816644999999999 Na
atom 7.5525454300000003 1.7182448600000000 5.9068091500000000 Cl
atom 7.5436258699999996 4.5439711599999999 8.7387326299999994 Cl
atom 7.5369565999999999 1.7144184800000000 8.5504750699999992 Na
atom 7.5535630899999999 4.5325266800000001 5.9774487199999999 Na
atom 7.5617341199999997 7.3298975100000003 5.8699516699999998 Cl
atom 7.5699958000000001 10.2029116299999991 8.6436581599999993 Cl
atom 7.5524201900000003 7.3709054399999996 8.5112724899999996 Na
atom 7.5720110299999996 10.1429101199999998 5.8762490600000001 Na
atom 10.4030817100000004 12.9786791000000008 5.8817502399999997 Na
atom 13.2103049400000003 12.9825372399999992 5.7598405699999997 Cl
atom 10.4249858900000003 15.8877375999999995 8.3958848699999997 Na
atom 13.2654412599999993 15.8309159800000003 8.5804298499999998 Cl
atom 13.2238371600000004 13.0306840600000005 8.4041790800000005 Na
atom 10.4007364599999992 13.0412310500000004 8.6692951600000008 Cl
atom 13.2287462100000006 15.8409916699999993 5.8019899800000001 Na
atom 10.4120761599999998 15.7891535500000000 5.7347634899999997 Cl
atom 10.4522191000000007 18.6759079700000008 5.7448302499999997 Na
atom 13.2446664399999996 18.6283642600000015 5.7348240700000002 Cl
atom 10.4907277400000005 21.5122704899999988 8.3841269300000008 Na
atom 13.2971393599999992 21.4891589100000004 8.4163700699999993 Cl
atom 13.2417697800000003 18.7035350999999999 8.4669754699999995 Na
atom 10.3899194200000000 18.6591546100000016 8.3863710400000002 Cl
atom 13.2403209400000001 21.4523708000000006 5.7062326399999996 Na
atom 10.4307973100000009 21.4850866899999993 5.6830815699999997 Cl
atom 10.4224947599999993 24.2961139599999996 5.7168880099999999 Na
atom 13.2390028100000006 24.3089537500000006 5.6578434700000004 Cl
atom 10.3968997699999992 27.0733059099999984 8.3586262799999993 Na
atom 13.2324428100000002 27.0524753300000000 8.6359381099999997 Cl
atom 13.2510015800000005 24.2406767199999997 8.3234609200000005 Na
atom 10.4488094100000009 24.3382285100000004 8.3954153999999992 Cl
atom 13.2203252800000008 27.0799010799999991 5.8104064500000003 Na
atom 10.3986953900000003 27.1272857599999995 5.7150904999999996 Cl
atom 10.3835508399999998 29.9166416700000006 5.8270989100000001 Na
atom 13.2028499299999993 29.9013956100000016 5.7611017400000000 Cl
atom 10.3807787499999993 32.7043143799999996 8.4485936000000006 Na
atom 13.2044263300000004 32.6974277099999995 8.6379611000000001 Cl
atom 13.2091639099999991 29.8779200200000012 8.4010563099999995 Na
atom 10.3897615900000009 29.8776525200000016 8.6039013400000002 Cl
atom 13.1983211300000001 32.7355966399999971 5.8991609399999998 Na
atom 10.3803286799999999 32.7378450400000034 5.7966561199999997 Cl
atom 10.3735422300000000 35.5720248000000012 5.9290931100000002 Na
atom 13.1878041199999991 35.5683129199999968 5.8377563300000004 Cl
atom 10.3620243199999997 38.3554858199999984 8.5419066099999998 Na
atom 13.1912922800000008 38.3556036199999966 8.7295507000000008 Cl
atom 13.2001836800000003 35.5302846200000033 8.4809141100000005 Na
atom 10.3745217400000005 35.5216751900000034 8.6827650399999996 Cl
atom 13.1787515400000004 38.3987579499999967 5.9818320299999996 Na
atom 10.3639821800000007 38.3835542500000031 5.8935333800000000 Cl
atom 10.3632819000000005 1.7150955900000000 5.9885504999999997 Na
atom 13.1715899400000005 1.7173590999999999 5.9097989200000001 Cl
atom 10.3601426199999995 4.5310333399999996 8.5529332399999998 Na
atom 13.1821156800000008 4.5443468600000001 8.7383719200000005 Cl
atom 13.1802271399999995 1.7169551900000000 8.5502650500000001 Na
atom 10.3566690399999999 1.6993630300000000 8.7478465799999992 Cl
atom 13.1741275400000006 4.5315214499999996 5.9845101900000000 Na
atom 10.3621345599999994 4.5216478599999999 5.9124691699999996 Cl
atom 10.3710185900000003 7.3169507999999999 5.9528274699999999 Na
atom 13.1829161100000007 7.3333775200000000 5.8724454899999996 Cl
atom 10.3836640700000000 10.1862684600000009 8.4558787500000001 Na
atom 13.2027002899999992 10.2140563400000008 8.6467864599999995 Cl
atom 13.1893180500000007 7.3760276999999999 8.5112977599999997 Na
atom 10.3724077099999992 7.3725158600000000 8.7048653300000005 Cl
atom 13.1946676400000005 10.1491921400000003 5.8766752300000000 Na
atom 10.3841273300000001 10.1569581000000007 5.8175772400000003 Cl
atom 16.0190513900000013 12.9678585599999998 5.8374943500000001 Na
atom 18.8430661700000002 12.9512880999999993 5.7175677599999997 Cl
atom 16.0633954900000013 15.8554219100000005 8.3462554499999992 Na
atom 18.8798324300000004 15.8080057600000004 8.4230469800000005 Cl
atom 18.8446038099999988 13.0093589099999996 8.3626105899999992 Na
atom 16.0431211800000000 13.0110981199999998 8.6260556800000003 Cl
atom 18.8603461800000005 15.7975779900000006 5.7127024600000000 Na
atom 16.0377564700000015 15.7870925300000007 5.6943705099999997 Cl
atom 16.0304430899999986 18.6464970100000009 5.7365380999999998 Na
atom 18.8878988300000010 18.6190699100000003 5.6569242400000004 Cl
atom 16.0480862699999989 21.4601117300000013 8.2989783900000003 Na
atom 18.8411197799999997 21.4303745799999987 8.4095952399999998 Cl
atom 18.8496881599999995 18.6276528699999986 8.3135504299999994 Na
atom 16.0951937399999991 18.6626794400000016 8.4421736500000009 Cl
atom 18.8784743699999993 21.4482125600000018 5.7123575000000004 Na
atom 16.0657274399999999 21.4530191700000010 5.6286464399999998 Cl
atom 16.0535670000000010 24.2824991300000015 5.6895153100000000 Na
atom 18.8940929000000004 24.2790798800000012 5.7206778600000003 Cl
atom 16.0272727000000010 27.0406055000000016 8.3723059000000006 Na
atom 18.8269089299999983 27.0350079900000004 8.6614094300000009 Cl
atom 18.8225534900000007 24.2180238699999997 8.3647963000000001 Na
atom 16.0614732099999991 24.2500684100000008 8.3640911800000008 Cl
atom 18.8617827200000008 27.0553003200000006 5.8393401599999999 Na
atom 16.0405415900000001 27.1042548200000013 5.7299262100000004 Cl
atom 16.0224132700000013 29.8959076300000000 5.8259261599999999 Na
atom 18.8399173799999993 29.8734254300000011 5.7578688299999996 Cl
atom 16.0247947999999987 32.7010770799999975 8.4230589299999998 Na
atom 18.8418047500000014 32.6917656999999977 8.6053378200000008 Cl
atom 18.8404833099999998 29.8719474699999985 8.3963660900000008 Na
atom 16.0249482199999989 29.8698838299999991 8.6018427899999992 Cl
atom 18.8310933200000008 32.7098984400000035 5.8649904499999996 Na
atom 16.0124635300000016 32.7229934900000003 5.7729276100000000 Cl
atom 16.0051139800000009 35.5637347899999980 5.8946536800000002 Na
atom 18.8230293999999994 35.5501414499999981 5.7880718099999999 Cl
atom 16.0169082899999999 38.3528560800000022 8.5057491100000000 Na
atom 18.8435133899999983 38.3478248899999983 8.6699928499999999 Cl
atom 18.8452829699999995 35.5216377699999981 8.4279662500000008 Na
atom 16.0233716900000012 35.5215618900000010 8.6458755699999994 Cl
atom 18.8160288099999988 38.3884126199999969 5.9279182900000000 Na
atom 15.9952745499999995 38.3859153300000031 5.8589603800000001 Cl