# 
# This is the geometry file that corresponds to the current relaxation step.
# If you do not want this file to be written, set the "write_restart_geometry" flag to .false.
#  aims_uuid : 781411AF-9E70-44EB-A81C-0B4C02102391                                
# 
  set_vacuum_level        22.532399
lattice_vector     28.20000000      0.00000000      0.00000000
lattice_vector      0.00000000     39.48000000      0.00000000
lattice_vector      0.00000000      0.00000000     32.32960834
atom       7.49846324     14.81330533     -0.03331973 Au
atom      10.31741916     14.81941924     -0.09839840 Au
atom      13.13821656     14.81351601     -0.05825477 Au
atom      15.95850608     14.82141279     -0.13243081 Au
atom      18.78035785     14.81413478     -0.07606595 Au
atom      21.60281473     14.82023953     -0.11940680 Au
atom      24.42240963     14.81381670     -0.04766577 Au
atom      27.24199638     14.82070612     -0.09449570 Au
atom       1.86060051     14.81397211     -0.02946196 Au
atom       4.67943946     14.82023979     -0.08666244 Au
atom       8.90477176     17.28579241     -0.03992901 Au
atom      11.73034815     17.28629924     -0.05317846 Au
atom      14.54558612     17.28717609     -0.06423720 Au
atom      17.37303024     17.28838568     -0.07295285 Au
atom      20.18969763     17.28867292     -0.06556937 Au
atom      23.01524134     17.28766731     -0.04889563 Au
atom      25.82939951     17.28804496     -0.03635542 Au
atom       0.45321434     17.28760326     -0.02784840 Au
atom       3.26714548     17.28703749     -0.02851094 Au
atom       6.09120853     17.28677507     -0.03133257 Au
atom       7.49823699     19.75504134      0.04816786 Au
atom      10.31677026     19.75923027     -0.01240149 Au
atom      13.13715760     19.75466272      0.02191828 Au
atom      15.95935114     19.76054400     -0.03369446 Au
atom      18.78217200     19.75646223      0.01457743 Au
atom      21.60335337     19.76099853     -0.01513837 Au
atom      24.42183456     19.75657592      0.04757433 Au
atom      27.24095593     19.76071492      0.00964180 Au
atom       1.86008899     19.75628303      0.05597921 Au
atom       4.67891648     19.76006361      0.00717061 Au
atom       8.90640414     22.21835705      0.03271047 Au
atom      11.72656703     22.21803538      0.01691945 Au
atom      14.54597573     22.21797996     -0.00984441 Au
atom      17.37311483     22.21876385     -0.01334634 Au
atom      20.19338897     22.21976046      0.01475832 Au
atom      23.01360720     22.21988794      0.03815907 Au
atom      25.83082300     22.22003872      0.04799689 Au
atom       0.45091227     22.22009998      0.04945519 Au
atom       3.26874068     22.21967844      0.04788571 Au
atom       6.08867780     22.21914880      0.04208423 Au
atom       7.49770122     24.68826564      0.04677113 Au
atom      10.31686075     24.68425425      0.03982409 Au
atom      13.13640764     24.68759102      0.00790646 Au
atom      15.95965139     24.68631191     -0.01470931 Au
atom      18.78304368     24.68887366      0.00782705 Au
atom      21.60291023     24.68538856      0.04493729 Au
atom      24.42188776     24.68874884      0.05390321 Au
atom      27.24066995     24.68576411      0.06375846 Au
atom       1.85979482     24.68879130      0.05835203 Au
atom       4.67890841     24.68538032      0.05986613 Au
atom       8.90998861     27.14749785      0.00026069 Au
atom      11.72556670     27.14758975     -0.01727630 Au
atom      14.55036073     27.15016678     -0.03308523 Au
atom      17.36897665     27.15057680     -0.03127823 Au
atom      20.19398417     27.14827730     -0.01361733 Au
atom      23.00967038     27.14777675      0.00535940 Au
atom      25.83291169     27.14750181      0.01380214 Au
atom       0.44817576     27.14748094      0.01512222 Au
atom       3.27147801     27.14742058      0.01352403 Au
atom       6.08676290     27.14737036      0.00982949 Au
atom       7.49883808     29.61861981     -0.05312988 Au
atom      10.31868572     29.61364199     -0.02092410 Au
atom      13.13808578     29.62129201     -0.07304821 Au
atom      15.95964072     29.61622557     -0.03393227 Au
atom      18.78130333     29.62142073     -0.07210242 Au
atom      21.60100046     29.61376115     -0.01942067 Au
atom      24.42083405     29.61853324     -0.05115251 Au
atom      27.24031783     29.61276756     -0.00717851 Au
atom       1.85983167     29.61843071     -0.04792049 Au
atom       4.67962012     29.61282921     -0.00825260 Au
atom       8.91171413     32.08521450     -0.06491423 Au
atom      11.72613337     32.08631765     -0.06938186 Au
atom      14.55178836     32.08756478     -0.07579534 Au
atom      17.36755960     32.08748107     -0.07602295 Au
atom      20.19350659     32.08638491     -0.07039291 Au
atom      23.00792930     32.08516527     -0.06562562 Au
atom      25.83318587     32.08463113     -0.06245288 Au
atom       0.44746504     32.08452102     -0.06093900 Au
atom       3.27243703     32.08461334     -0.06110473 Au
atom       6.08665428     32.08468983     -0.06147025 Au
atom       7.49931446     34.56269458     -0.07700120 Au
atom      10.31938867     34.55641308     -0.02028135 Au
atom      13.13915113     34.56424111     -0.08189504 Au
atom      15.95968245     34.55766652     -0.02520692 Au
atom      18.78033671     34.56423632     -0.08337642 Au
atom      21.60033242     34.55639651     -0.02259399 Au
atom      24.42046148     34.56259744     -0.07935962 Au
atom      27.24027390     34.55539960     -0.01911557 Au
atom       1.86006507     34.56232954     -0.07714830 Au
atom       4.67974598     34.55544711     -0.01768470 Au
atom       8.91195059     37.02861957     -0.01373340 Au
atom      11.72675510     37.02902974     -0.01501423 Au
atom      14.55199187     37.02948135     -0.01706950 Au
atom      17.36741771     37.02947540     -0.01813668 Au
atom      20.19289077     37.02910022     -0.01791836 Au
atom      23.00786821     37.02859725     -0.01697396 Au
atom      25.83288742     37.02820092     -0.01607376 Au
atom       0.44771121     37.02802449     -0.01490413 Au
atom       3.27246348     37.02803915     -0.01421291 Au
atom       6.08714573     37.02819184     -0.01300548 Au
atom       7.49952489      0.01981726      0.02332794 Au
atom      10.31939406      0.01611271      0.06739106 Au
atom      13.13919496      0.02054482      0.02033491 Au
atom      15.95970883      0.01657528      0.06353046 Au
atom      18.78017393      0.02062007      0.01785178 Au
atom      21.60036021      0.01611541      0.06356049 Au
atom      24.42045879      0.01986280      0.01933737 Au
atom      27.24035468      0.01554741      0.06548964 Au
atom       1.86023548      0.01959577      0.02152652 Au
atom       4.67988596      0.01550860      0.06781319 Au
atom       8.91010382      2.47837377      0.05725392 Au
atom      11.72847454      2.47860066      0.05476300 Au
atom      14.55019384      2.47893170      0.05225311 Au
atom      17.36910046      2.47895234      0.05066701 Au
atom      20.19108240      2.47873207      0.05074489 Au
atom      23.00983461      2.47845727      0.05229447 Au
atom      25.83124688      2.47825522      0.05377344 Au
atom       0.44971935      2.47823773      0.05571046 Au
atom       3.27086202      2.47816047      0.05706055 Au
atom       6.08911155      2.47821413      0.05798025 Au
atom       7.49940700      4.94336250      0.06807141 Au
atom      10.31891681      4.94652956      0.06109204 Au
atom      13.13904307      4.94376119      0.06107694 Au
atom      15.95952244      4.94688127      0.05394521 Au
atom      18.78014343      4.94387869      0.05715417 Au
atom      21.60067376      4.94655608      0.05525614 Au
atom      24.42087271      4.94342591      0.06186085 Au
atom      27.24070556      4.94639883      0.06008132 Au
atom       1.86049347      4.94337458      0.06697629 Au
atom       4.67999300      4.94640782      0.06356122 Au
atom       8.90669996      7.40463686      0.01447277 Au
atom      11.73014089      7.40477038      0.00771996 Au
atom      14.54665477      7.40463238      0.00049769 Au
atom      17.37188553      7.40467234     -0.00254498 Au
atom      20.18897525      7.40474109     -0.00014450 Au
atom      23.01334478      7.40461123      0.00507815 Au
atom      25.82926908      7.40465671      0.00986034 Au
atom       0.45295879      7.40474398      0.01378280 Au
atom       3.26845266      7.40479992      0.01666365 Au
atom       6.09161422      7.40481775      0.01688334 Au
atom       7.49886215      9.87007706     -0.00916460 Au
atom      10.31758039      9.87516473     -0.05801520 Au
atom      13.13785990      9.86991427     -0.02945260 Au
atom      15.95894724      9.87523424     -0.07630708 Au
atom      18.78069950      9.87003777     -0.03827815 Au
atom      21.60188266      9.87517262     -0.07047499 Au
atom      24.42190872      9.86993852     -0.02177853 Au
atom      27.24166555      9.87554772     -0.05600308 Au
atom       1.86088803      9.87025960     -0.00968601 Au
atom       4.67988974      9.87565132     -0.04929939 Au
atom       8.90534155     12.34137819     -0.07291868 Au
atom      11.72975868     12.34182049     -0.08428040 Au
atom      14.54481354     12.34108601     -0.10686432 Au
atom      17.37284689     12.34137922     -0.11105495 Au
atom      20.18898132     12.34173105     -0.10063001 Au
atom      23.01536396     12.34133516     -0.09147079 Au
atom      25.82971341     12.34194950     -0.07925188 Au
atom       0.45421322     12.34196570     -0.07137166 Au
atom       3.26766023     12.34215060     -0.06636861 Au
atom       6.09163634     12.34191810     -0.06835664 Au
atom       7.50153837     13.17396171      2.58318535 Au
atom      10.32136570     13.17614038      2.47422355 Au
atom      13.14178565     13.17535181      2.55669028 Au
atom      15.95974023     13.17786173      2.43017238 Au
atom      18.77887790     13.17620641      2.54284435 Au
atom      21.59913464     13.17646459      2.45103018 Au
atom      24.41828887     13.17389953      2.56800751 Au
atom      27.23912418     13.17548955      2.47459606 Au
atom       1.85965083     13.17351278      2.58526720 Au
atom       4.68107374     13.17565364      2.48356103 Au
atom       8.91152244     15.63287346      2.56449212 Au
atom      11.73133705     15.63391593      2.54785249 Au
atom      14.55036637     15.63409709      2.53703320 Au
atom      17.36890676     15.63429268      2.52184395 Au
atom      20.18890346     15.63381902      2.52276963 Au
atom      23.00917928     15.63277262      2.54543534 Au
atom      25.82884043     15.63254507      2.55697066 Au
atom       0.44943750     15.63242417      2.56768648 Au
atom       3.27050845     15.63272104      2.57066379 Au
atom       6.09133825     15.63279510      2.56861011 Au
atom       7.50238116     18.08501838      2.63094688 Au
atom      10.32201948     18.10371885      2.52943862 Au
atom      13.14157817     18.08587058      2.61087901 Au
atom      15.96019964     18.10425755      2.50852198 Au
atom      18.77861550     18.08580799      2.59883351 Au
atom      21.59781638     18.10467517      2.52491365 Au
atom      24.41765631     18.08475676      2.62441794 Au
atom      27.23846743     18.10428405      2.55111418 Au
atom       1.86011178     18.08499300      2.63554314 Au
atom       4.68124899     18.10426520      2.54890337 Au
atom       8.91382108     20.56572040      2.66394841 Au
atom      11.72973385     20.56529415      2.64845227 Au
atom      14.55099366     20.56507744      2.63284701 Au
atom      17.36843930     20.56578948      2.62754844 Au
atom      20.18967734     20.56584392      2.64273540 Au
atom      23.00574576     20.56574671      2.66488037 Au
atom      25.82878104     20.56595909      2.67231711 Au
atom       0.44773295     20.56637393      2.67428159 Au
atom       3.27199696     20.56631215      2.67413445 Au
atom       6.09045598     20.56617735      2.66912144 Au
atom       7.50277477     23.03118711      2.64025367 Au
atom      10.32259957     23.05190181      2.63319906 Au
atom      13.14207401     23.02928085      2.60719024 Au
atom      15.95991535     23.04990987      2.57011463 Au
atom      18.77734025     23.03047403      2.60249821 Au
atom      21.59636783     23.05224577      2.63683717 Au
atom      24.41689318     23.03076696      2.64954042 Au
atom      27.23844604     23.05413316      2.65344316 Au
atom       1.86016308     23.03127951      2.65222251 Au
atom       4.68167435     23.05402721      2.65012407 Au
atom       8.91382269     25.52011647      2.66590834 Au
atom      11.72981412     25.52018036      2.64735525 Au
atom      14.55116135     25.51925162      2.60949928 Au
atom      17.36743601     25.51995351      2.61054256 Au
atom      20.18921236     25.52061215      2.65057304 Au
atom      23.00551865     25.52013722      2.67271417 Au
atom      25.82891541     25.52085615      2.68069273 Au
atom       0.44768825     25.52158145      2.68210656 Au
atom       3.27204386     25.52144115      2.67963269 Au
atom       6.09033589     25.52098761      2.67558124 Au
atom       7.50232756     27.98256955      2.55985760 Au
atom      10.32242972     27.99805139      2.62543481 Au
atom      13.14052434     27.98241543      2.53046637 Au
atom      15.95951647     27.99811547      2.60191205 Au
atom      18.77850042     27.98280751      2.53324494 Au
atom      21.59699152     27.99848908      2.62830964 Au
atom      24.41742073     27.98265191      2.56404420 Au
atom      27.23869277     27.99973437      2.64349295 Au
atom       1.85999170     27.98354982      2.56667549 Au
atom       4.68138901     27.99956438      2.64157730 Au
atom       8.91282383     30.45326286      2.57125605 Au
atom      11.73001262     30.45317018      2.56616960 Au
atom      14.55072579     30.45339554      2.55590534 Au
atom      17.36824399     30.45377123      2.55639599 Au
atom      20.18917966     30.45371118      2.56585616 Au
atom      23.00666810     30.45392528      2.57205609 Au
atom      25.82936600     30.45453275      2.57675853 Au
atom       0.44825302     30.45466979      2.57860668 Au
atom       3.27142996     30.45450934      2.57771280 Au
atom       6.09010285     30.45404148      2.57703611 Au
atom       7.50107421     32.91356493      2.48821738 Au
atom      10.32118185     32.91105690      2.58995686 Au
atom      13.14045282     32.91344513      2.48105031 Au
atom      15.95979583     32.91103729      2.58234659 Au
atom      18.77908321     32.91380042      2.47988959 Au
atom      21.59843790     32.91172093      2.58849418 Au
atom      24.41866162     32.91410519      2.48654138 Au
atom      27.23904787     32.91210969      2.59375629 Au
atom       1.85985775     32.91431155      2.48904824 Au
atom       4.68057899     32.91172570      2.59459449 Au
atom       8.91071101     35.37143616      2.58042917 Au
atom      11.73029901     35.37161353      2.57938234 Au
atom      14.55017672     35.37172056      2.57619460 Au
atom      17.36942112     35.37189517      2.57594862 Au
atom      20.18923541     35.37214883      2.57640071 Au
atom      23.00885196     35.37199363      2.57790142 Au
atom      25.82903639     35.37205774      2.57911821 Au
atom       0.44929808     35.37200736      2.58047464 Au
atom       3.27015318     35.37182844      2.58112395 Au
atom       6.09038138     35.37158637      2.58177961 Au
atom       7.50041522     37.84462779      2.56741117 Au
atom      10.32054115     37.82527920      2.64974351 Au
atom      13.14021727     37.84500914      2.56445901 Au
atom      15.96009722     37.82595133      2.64606793 Au
atom      18.77967408     37.84532397      2.56223719 Au
atom      21.59939180     37.82581482      2.64635670 Au
atom      24.41923229     37.84513063      2.56382883 Au
atom      27.23939326     37.82534309      2.64836763 Au
atom       1.85972886     37.84490530      2.56595827 Au
atom       4.68013566     37.82503831      2.65039112 Au
atom       8.90915292      0.82755717      2.68482565 Au
atom      11.73148709      0.82786518      2.68346829 Au
atom      14.54899563      0.82827990      2.68061529 Au
atom      17.37100517      0.82833714      2.67975454 Au
atom      20.18839920      0.82847719      2.67951570 Au
atom      23.01054114      0.82802218      2.68063394 Au
atom      25.82810287      0.82769832      2.68187701 Au
atom       0.45064259      0.82744034      2.68326952 Au
atom       3.26867365      0.82729340      2.68463903 Au
atom       6.09131014      0.82716284      2.68546669 Au
atom       7.50049476      3.31595813      2.65980877 Au
atom      10.32063928      3.29342761      2.65873856 Au
atom      13.14058329      3.31701891      2.65404955 Au
atom      15.96025136      3.29436588      2.65315447 Au
atom      18.77981755      3.31739739      2.65059843 Au
atom      21.59940448      3.29399672      2.65368611 Au
atom      24.41918707      3.31654783      2.65422637 Au
atom      27.23931687      3.29297881      2.65713847 Au
atom       1.85964348      3.31586773      2.65842535 Au
atom       4.68004797      3.29268660      2.66010549 Au
atom       8.90925531      5.78416127      2.68392740 Au
atom      11.73224575      5.78496071      2.67924536 Au
atom      14.54891382      5.78607012      2.67526139 Au
atom      17.37141662      5.78613864      2.67264265 Au
atom      20.18789774      5.78582731      2.67374310 Au
atom      23.01053137      5.78484515      2.67668757 Au
atom      25.82759323      5.78403751      2.67956322 Au
atom       0.45076113      5.78358240      2.68244807 Au
atom       3.26842873      5.78336495      2.68443327 Au
atom       6.09180721      5.78349425      2.68505978 Au
atom       7.50096918      8.26234492      2.64423971 Au
atom      10.32111394      8.24685609      2.56270044 Au
atom      13.14134039      8.26448068      2.62876239 Au
atom      15.96024853      8.24846100      2.54583414 Au
atom      18.77951017      8.26516951      2.62168191 Au
atom      21.59901180      8.24743651      2.55223292 Au
atom      24.41863871      8.26312442      2.63385685 Au
atom      27.23904609      8.24575205      2.56210016 Au
atom       1.85958889      8.26185216      2.64308155 Au
atom       4.68043778      8.24562845      2.56769136 Au
atom       8.91000572     10.71748032      2.57326687 Au
atom      11.73186078     10.71798090      2.55939552 Au
atom      14.54886807     10.72032497      2.54781547 Au
atom      17.37120689     10.72027286      2.54100322 Au
atom      20.18823313     10.71886775      2.54697415 Au
atom      23.00988555     10.71813713      2.55796491 Au
atom      25.82779208     10.71716820      2.56479339 Au
atom       0.45042454     10.71682305      2.57191682 Au
atom       3.26914384     10.71652166      2.57529682 Au
atom       6.09189338     10.71708049      2.57604511 Au
atom       7.50213777     13.17352600      5.66312121 Cl
atom       7.53131715     15.98818572      8.54424724 Cl
atom       7.50024879     13.17279357      8.30598952 Na
atom       7.50089752     15.99980826      5.72939160 Na
atom       7.49639161     18.82449677      5.69554512 Cl
atom       7.52755465     21.65260382      8.54810754 Cl
atom       7.50985764     18.80544991      8.32723410 Na
atom       7.50260167     21.63503976      5.76488017 Na
atom       7.50276591     24.44262261      5.71839587 Cl
atom       7.51003622     27.25213749      8.54979387 Cl
atom       7.50402236     24.44061715      8.34992339 Na
atom       7.49650463     27.23616734      5.78055034 Na
atom       7.50030045     30.06053483      5.66812873 Cl
atom       7.50224492     32.89345875      8.50902558 Cl
atom       7.49984420     30.07684373      8.30889170 Na
atom       7.49683696     32.90134585      5.76521286 Na
atom       7.49786403     35.73519389      5.66981201 Cl
atom       7.49841316     38.54019976      8.54028255 Cl
atom       7.49795619     35.72377034      8.31245188 Na
atom       7.49686369     38.57357609      5.78978012 Na
atom       7.49736745      1.89342121      5.72636355 Cl
atom       7.49975601      4.71738603      8.55351055 Cl
atom       7.49761505      1.89208688      8.36433112 Na
atom       7.49678727      4.70602303      5.79318106 Na
atom       7.49887199      7.51632706      5.70429155 Cl
atom       7.50600365     10.36591231      8.50919034 Cl
atom       7.49856353      7.53725069      8.34537080 Na
atom       7.49731397     10.33179557      5.74095352 Na
atom      10.31040200     13.17146351      5.75962754 Na
atom      13.12309795     13.17404772      5.62882589 Cl
atom      10.32635511     16.01515869      8.31136337 Na
atom      13.12332265     15.98924877      8.49690076 Cl
atom      13.14596516     13.17285563      8.26458354 Na
atom      10.33404349     13.19111977      8.54552487 Cl
atom      13.13073643     16.01021480      5.69836053 Na
atom      10.31633623     15.99401762      5.66538251 Cl
atom      10.32792220     18.83831698      5.71954639 Na
atom      13.14729258     18.81849286      5.69849269 Cl
atom      10.33139865     21.60791676      8.37675154 Na
atom      13.13932680     21.59396626      8.59960214 Cl
atom      13.15136696     18.79733706      8.35258542 Na
atom      10.36889525     18.80925483      8.43046324 Cl
atom      13.12925159     21.60929043      5.74052779 Na
atom      10.32469915     21.64037068      5.73042661 Cl
atom      10.30508925     24.43578044      5.77135829 Na
atom      13.10193678     24.42487215      5.66670585 Cl
atom      10.32600385     27.25514050      8.33780463 Na
atom      13.16630589     27.21340004      8.56937272 Cl
atom      13.15588025     24.41819379      8.28556947 Na
atom      10.34821484     24.42366020      8.60243903 Cl
atom      13.12737959     27.23301861      5.74455031 Na
atom      10.32154729     27.23402784      5.70758681 Cl
atom      10.31522469     30.06097738      5.73524332 Na
atom      13.13296215     30.05203654      5.66034478 Cl
atom      10.31974754     32.89645728      8.30357504 Na
atom      13.14060575     32.88686232      8.50395897 Cl
atom      13.14312748     30.06683221      8.29589491 Na
atom      10.33085063     30.06656413      8.50470446 Cl
atom      13.13463615     32.89978858      5.75871100 Na
atom      10.31739003     32.89437097      5.65363405 Cl
atom      10.31670587     35.73834932      5.74379861 Na
atom      13.13651574     35.73286984      5.66702767 Cl
atom      10.31790205     38.53510377      8.34490722 Na
atom      13.13805525     38.53830598      8.53774666 Cl
atom      13.13821527     35.72088504      8.30911587 Na
atom      10.31970127     35.71034507      8.50105194 Cl
atom      13.13595320     38.57157451      5.78691697 Na
atom      10.31671612     38.55816337      5.69983571 Cl
atom      10.31607495      1.88562171      5.79217694 Na
atom      13.13587086      1.89105565      5.72277396 Cl
atom      10.31859516      4.70100289      8.36066723 Na
atom      13.13932411      4.71701764      8.54788319 Cl
atom      13.13809719      1.89043968      8.36049258 Na
atom      10.31881202      1.88021318      8.55140199 Cl
atom      13.13405821      4.70163515      5.78606242 Na
atom      10.31606768      4.70110463      5.72225156 Cl
atom      10.31401751      7.49675996      5.78258950 Na
atom      13.13262464      7.51225849      5.69397149 Cl
atom      10.32221789     10.34943892      8.30492093 Na
atom      13.14555161     10.37225500      8.49998135 Cl
atom      13.14069038      7.53588999      8.33184868 Na
atom      10.32326076      7.53963595      8.54037072 Cl
atom      13.13020496     10.32444621      5.71607585 Na
atom      10.31722213     10.34276153      5.66792587 Cl
atom      15.94984813     13.15601062      5.66851658 Na
atom      18.78044203     13.16463986      5.59998712 Cl
atom      15.98654506     15.99780880      8.25894578 Na
atom      18.79243685     15.99487852      8.39631079 Cl
atom      18.76511524     13.18389364      8.24018019 Na
atom      15.95590548     13.12714485      8.37541440 Cl
atom      18.78648502     16.01375161      5.65500068 Na
atom      15.94669693     16.00198816      5.63337587 Cl
atom      15.95376795     18.83939226      5.71118294 Na
atom      18.76911250     18.82658796      5.67785185 Cl
atom      15.95751606     21.64514744      8.32013901 Na
atom      18.75316647     21.62493080      8.48882432 Cl
atom      18.76048657     18.80772749      8.33229218 Na
atom      15.95048073     18.82741118      8.47480797 Cl
atom      18.77770527     21.62152400      5.72022823 Na
atom      15.93935964     21.61210651      5.67470300 Cl
atom      15.95482837     24.43675251      5.62012303 Na
atom      18.80195898     24.43857095      5.66528171 Cl
atom      15.95393495     27.23230799      8.27253625 Na
atom      18.73944017     27.22201087      8.57115768 Cl
atom      18.73486126     24.41775234      8.30535234 Na
atom      15.95685816     24.43599948      8.24050703 Cl
atom      18.78187061     27.23082939      5.75135103 Na
atom      15.95130419     27.26632273      5.63673521 Cl
atom      15.95567094     30.06915931      5.71666536 Na
atom      18.77599002     30.05178199      5.65912803 Cl
atom      15.95630508     32.89284873      8.29742807 Na
atom      18.77056462     32.88704481      8.50182417 Cl
atom      18.76834135     30.06697552      8.29620398 Na
atom      15.95318683     30.05478321      8.49146634 Cl
atom      18.77713749     32.89863959      5.75756795 Na
atom      15.95526332     32.89410350      5.64767311 Cl
atom      15.95644716     35.73704175      5.74004001 Na
atom      18.77587794     35.73232746      5.66503868 Cl
atom      15.95727369     38.53346725      8.34145946 Na
atom      18.77591075     38.53799299      8.53537082 Cl
atom      18.77574019     35.72029852      8.30739734 Na
atom      15.95653881     35.70833469      8.49740127 Cl
atom      18.77678907     38.57083372      5.78489973 Na
atom      15.95607782     38.55620308      5.69620934 Cl
atom      15.95631652      1.88260766      5.78710518 Na
atom      18.77654861      1.89015109      5.71985884 Cl
atom      15.95768857      4.69837204      8.35279130 Na
atom      18.77499832      4.71680517      8.54334610 Cl
atom      18.77680266      1.89033125      8.35774571 Na
atom      15.95722774      1.87858245      8.54698976 Cl
atom      18.77786599      4.70063008      5.78239308 Na
atom      15.95535424      4.69434762      5.71465901 Cl
atom      15.95473516      7.48171195      5.75992282 Na
atom      18.77638134      7.50998446      5.68731277 Cl
atom      15.95835284     10.33379640      8.25673943 Na
atom      18.76696745     10.37648704      8.48824507 Cl
atom      18.77470517      7.53725700      8.32552882 Na
atom      15.95738540      7.53638370      8.52243688 Cl
atom      18.77868623     10.32089788      5.70514534 Na
atom      15.95252373     10.31397298      5.62246459 Cl
atom      21.60346146     13.15930254      5.72542054 Na
atom      24.41572478     13.16516958      5.63813982 Cl
atom      21.59207830     15.98733171      8.25362768 Na
atom      24.40066966     15.97924999      8.48805783 Cl
atom      24.41126542     13.16834853      8.28456240 Na
atom      21.57084835     13.18142686      8.49885442 Cl
atom      24.42283648     16.00180983      5.71352042 Na
atom      21.60693739     15.99356280      5.61818372 Cl
atom      21.59253027     18.83508637      5.73976122 Na
atom      24.41071952     18.82064993      5.68935236 Cl
atom      21.57256583     21.60303546      8.37699795 Na
atom      24.39259933     21.60332520      8.56487807 Cl
atom      24.39696655     18.79033017      8.33061731 Na
atom      21.55919063     18.76831667      8.49866334 Cl
atom      24.41013018     21.62289801      5.78416100 Na
atom      21.59508096     21.62729661      5.72846863 Cl
atom      21.59839242     24.43187802      5.78084986 Na
atom      24.40544107     24.43017437      5.72804206 Cl
atom      21.58367912     27.25527016      8.33880818 Na
atom      24.40116458     27.25039062      8.54293791 Cl
atom      24.40335028     24.42630954      8.36372821 Na
atom      21.55196347     24.42576519      8.58620259 Cl
atom      24.41201120     27.22660716      5.78513217 Na
atom      21.58867358     27.23479188      5.70485984 Cl
atom      21.59634878     30.05838103      5.73466947 Na
atom      24.41206219     30.05803514      5.66566667 Cl
atom      21.59282279     32.89508743      8.30136929 Na
atom      24.41046556     32.89274542      8.50539095 Cl
atom      24.41088084     30.07295568      8.30786401 Na
atom      21.58046904     30.06867308      8.49947995 Cl
atom      24.41533331     32.89835319      5.76360278 Na
atom      21.59435755     32.89373671      5.65032265 Cl
atom      21.59661693     35.73687977      5.74111229 Na
atom      24.41585015     35.73391685      5.66663494 Cl
atom      21.59605078     38.53433303      8.34141509 Na
atom      24.41513231     38.53940617      8.53640516 Cl
atom      24.41500803     35.72217380      8.30960380 Na
atom      21.59346936     35.70977180      8.49752419 Cl
atom      24.41708042     38.57210211      5.78649459 Na
atom      21.59647429     38.55697140      5.69600730 Cl
atom      21.59751533      1.88414255      5.78771613 Na
atom      24.41734975      1.89167950      5.72170100 Cl
atom      21.59565934      4.70079995      8.35429537 Na
atom      24.41402267      4.71651270      8.54639796 Cl
atom      24.41602502      1.89141553      8.35992326 Na
atom      21.59534288      1.87954530      8.54643676 Cl
atom      24.41819526      4.70351528      5.78702628 Na
atom      21.59694479      4.69790506      5.71542456 Cl
atom      21.59858842      7.49201190      5.77131238 Na
atom      24.41704305      7.51079274      5.69337951 Cl
atom      21.59148627     10.34761847      8.28678810 Na
atom      24.40683285     10.36218827      8.48813506 Cl
atom      24.41414260      7.53675279      8.33528561 Na
atom      21.58980909      7.53806520      8.52707820 Cl
atom      24.41930528     10.32542641      5.72539130 Na
atom      21.59482380     10.33201548      5.64851131 Cl
atom      27.23953513     13.16457447      5.75168456 Na