#===============================================================================
# Created using the Atomic Simulation Environment (ASE)

# Mon Nov 24 17:08:41 2025

#=======================================================
lattice_vector 14.4249783362055712 0.0000000000000000 0.0000000000000000 
lattice_vector 0.0000000000000000 14.4249783362055712 0.0000000000000000 
lattice_vector 0.0000000000000000 0.0000000000000000 36.1199999999999974 
atom 1.4424978336205572 1.4424978336205572 14.9999999999999982 Au
atom 4.3274935008616717 1.4424978336205572 14.9999999999999982 Au
atom 7.2124891681027856 1.4424978336205572 14.9999999999999982 Au
atom 10.0974848353439004 1.4424978336205572 14.9999999999999982 Au
atom 12.9824805025850143 1.4424978336205572 14.9999999999999982 Au
atom 1.4424978336205572 4.3274935008616717 14.9999999999999982 Au
atom 4.3274935008616717 4.3274935008616717 14.9999999999999982 Au
atom 7.2124891681027856 4.3274935008616717 14.9999999999999982 Au
atom 10.0974848353439004 4.3274935008616717 14.9999999999999982 Au
atom 12.9824805025850143 4.3274935008616717 14.9999999999999982 Au
atom 1.4424978336205572 7.2124891681027856 14.9999999999999982 Au
atom 4.3274935008616717 7.2124891681027856 14.9999999999999982 Au
atom 7.2124891681027856 7.2124891681027856 14.9999999999999982 Au
atom 10.0974848353439004 7.2124891681027856 14.9999999999999982 Au
atom 12.9824805025850143 7.2124891681027856 14.9999999999999982 Au
atom 1.4424978336205572 10.0974848353439004 14.9999999999999982 Au
atom 4.3274935008616717 10.0974848353439004 14.9999999999999982 Au
atom 7.2124891681027856 10.0974848353439004 14.9999999999999982 Au
atom 10.0974848353439004 10.0974848353439004 14.9999999999999982 Au
atom 12.9824805025850143 10.0974848353439004 14.9999999999999982 Au
atom 1.4424978336205572 12.9824805025850143 14.9999999999999982 Au
atom 4.3274935008616717 12.9824805025850143 14.9999999999999982 Au
atom 7.2124891681027856 12.9824805025850143 14.9999999999999982 Au
atom 10.0974848353439004 12.9824805025850143 14.9999999999999982 Au
atom 12.9824805025850143 12.9824805025850143 14.9999999999999982 Au
atom 0.0000000000000000 0.0000000000000000 17.0399999999999991 Au
atom 2.8849956672411143 0.0000000000000000 17.0399999999999991 Au
atom 5.7699913344822287 0.0000000000000000 17.0399999999999991 Au
atom 8.6549870017233435 0.0000000000000000 17.0399999999999991 Au
atom 11.5399826689644573 0.0000000000000000 17.0399999999999991 Au
atom 0.0000000000000000 2.8849956672411143 17.0399999999999991 Au
atom 2.8849956672411143 2.8849956672411143 17.0399999999999991 Au
atom 5.7699913344822287 2.8849956672411143 17.0399999999999991 Au
atom 8.6549870017233435 2.8849956672411143 17.0399999999999991 Au
atom 11.5399826689644573 2.8849956672411143 17.0399999999999991 Au
atom 0.0000000000000000 5.7699913344822287 17.0399999999999991 Au
atom 2.8849956672411143 5.7699913344822287 17.0399999999999991 Au
atom 5.7699913344822287 5.7699913344822287 17.0399999999999991 Au
atom 8.6549870017233435 5.7699913344822287 17.0399999999999991 Au
atom 11.5399826689644573 5.7699913344822287 17.0399999999999991 Au
atom 0.0000000000000000 8.6549870017233435 17.0399999999999991 Au
atom 2.8849956672411143 8.6549870017233435 17.0399999999999991 Au
atom 5.7699913344822287 8.6549870017233435 17.0399999999999991 Au
atom 8.6549870017233435 8.6549870017233435 17.0399999999999991 Au
atom 11.5399826689644573 8.6549870017233435 17.0399999999999991 Au
atom 0.0000000000000000 11.5399826689644573 17.0399999999999991 Au
atom 2.8849956672411143 11.5399826689644573 17.0399999999999991 Au
atom 5.7699913344822287 11.5399826689644573 17.0399999999999991 Au
atom 8.6549870017233435 11.5399826689644573 17.0399999999999991 Au
atom 11.5399826689644573 11.5399826689644573 17.0399999999999991 Au
atom 1.4424978336205572 1.4424978336205572 19.0799999999999983 Au
atom 4.3274935008616717 1.4424978336205572 19.0799999999999983 Au
atom 7.2124891681027856 1.4424978336205572 19.0799999999999983 Au
atom 10.0974848353439004 1.4424978336205572 19.0799999999999983 Au
atom 12.9824805025850143 1.4424978336205572 19.0799999999999983 Au
atom 1.4424978336205572 4.3274935008616717 19.0799999999999983 Au
atom 4.3274935008616717 4.3274935008616717 19.0799999999999983 Au
atom 7.2124891681027856 4.3274935008616717 19.0799999999999983 Au
atom 10.0974848353439004 4.3274935008616717 19.0799999999999983 Au
atom 12.9824805025850143 4.3274935008616717 19.0799999999999983 Au
atom 1.4424978336205572 7.2124891681027856 19.0799999999999983 Au
atom 4.3274935008616717 7.2124891681027856 19.0799999999999983 Au
atom 7.2124891681027856 7.2124891681027856 19.0799999999999983 Au
atom 10.0974848353439004 7.2124891681027856 19.0799999999999983 Au
atom 12.9824805025850143 7.2124891681027856 19.0799999999999983 Au
atom 1.4424978336205572 10.0974848353439004 19.0799999999999983 Au
atom 4.3274935008616717 10.0974848353439004 19.0799999999999983 Au
atom 7.2124891681027856 10.0974848353439004 19.0799999999999983 Au
atom 10.0974848353439004 10.0974848353439004 19.0799999999999983 Au
atom 12.9824805025850143 10.0974848353439004 19.0799999999999983 Au
atom 1.4424978336205572 12.9824805025850143 19.0799999999999983 Au
atom 4.3274935008616717 12.9824805025850143 19.0799999999999983 Au
atom 7.2124891681027856 12.9824805025850143 19.0799999999999983 Au
atom 10.0974848353439004 12.9824805025850143 19.0799999999999983 Au
atom 12.9824805025850143 12.9824805025850143 19.0799999999999983 Au
atom 0.0000000000000000 0.0000000000000000 21.1199999999999974 Au
atom 2.8849956672411143 0.0000000000000000 21.1199999999999974 Au
atom 5.7699913344822287 0.0000000000000000 21.1199999999999974 Au
atom 8.6549870017233435 0.0000000000000000 21.1199999999999974 Au
atom 11.5399826689644573 0.0000000000000000 21.1199999999999974 Au
atom 0.0000000000000000 2.8849956672411143 21.1199999999999974 Au
atom 2.8849956672411143 2.8849956672411143 21.1199999999999974 Au
atom 5.7699913344822287 2.8849956672411143 21.1199999999999974 Au
atom 8.6549870017233435 2.8849956672411143 21.1199999999999974 Au
atom 11.5399826689644573 2.8849956672411143 21.1199999999999974 Au
atom 0.0000000000000000 5.7699913344822287 21.1199999999999974 Au
atom 2.8849956672411143 5.7699913344822287 21.1199999999999974 Au
atom 5.7699913344822287 5.7699913344822287 21.1199999999999974 Au
atom 8.6549870017233435 5.7699913344822287 21.1199999999999974 Au
atom 11.5399826689644573 5.7699913344822287 21.1199999999999974 Au
atom 0.0000000000000000 8.6549870017233435 21.1199999999999974 Au
atom 2.8849956672411143 8.6549870017233435 21.1199999999999974 Au
atom 5.7699913344822287 8.6549870017233435 21.1199999999999974 Au
atom 8.6549870017233435 8.6549870017233435 21.1199999999999974 Au
atom 11.5399826689644573 8.6549870017233435 21.1199999999999974 Au
atom 0.0000000000000000 11.5399826689644573 21.1199999999999974 Au
atom 2.8849956672411143 11.5399826689644573 21.1199999999999974 Au
atom 5.7699913344822287 11.5399826689644573 21.1199999999999974 Au
atom 8.6549870017233435 11.5399826689644573 21.1199999999999974 Au
atom 11.5399826689644573 11.5399826689644573 21.1199999999999974 Au
